[prun] Resource manager = slurm
[prun] Launch cmd = srun --mpi=pmix pw.x -npool 4 (family=openmpi4)

     Program PWSCF v.7.3.1 starts on 22Jan2026 at 21:31:22 

     This program is part of the open-source Quantum ESPRESSO suite
     for quantum simulation of materials; please cite
         "P. Giannozzi et al., J. Phys.:Condens. Matter 21 395502 (2009);
         "P. Giannozzi et al., J. Phys.:Condens. Matter 29 465901 (2017);
         "P. Giannozzi et al., J. Chem. Phys. 152 154105 (2020);
          URL http://www.quantum-espresso.org", 
     in publications or presentations arising from this work. More details at
     http://www.quantum-espresso.org/quote

     Parallel version (MPI & OpenMP), running on     128 processor cores
     Number of MPI processes:               128
     Threads/MPI process:                     1

     MPI processes distributed on     4 nodes
     62398 MiB available memory on the printing compute node when the environment starts

     Waiting for input...
     Reading input from standard input

     Current dimensions of program PWSCF are:
     Max number of different atomic species (ntypx) = 10
     Max number of k-points (npk) =  40000
     Max angular momentum in pseudopotentials (lmaxx) =  4

     Atomic positions and unit cell read from directory:
     ./AlN.save/


     K-points division:     npool     =       4
     R & G space division:  proc/nbgrp/npool/nimage =      32
     Subspace diagonalization in iterative solution of the eigenvalue problem:
     a serial algorithm will be used


     Parallelization info
     --------------------
     sticks:   dense  smooth     PW     G-vecs:    dense   smooth      PW
     Min          26      26      7                 2966     2966     481
     Max          27      27      8                 2993     2993     506
     Sum         859     859    253                95357    95357   16039

     Using Slab Decomposition



     bravais-lattice index     =            4
     lattice parameter (alat)  =       5.8924  a.u.
     unit-cell volume          =     826.8763 (a.u.)^3
     number of atoms/cell      =            2
     number of atomic types    =            2
     number of electrons       =         8.00
     number of Kohn-Sham states=           40
     kinetic-energy cutoff     =      90.0000  Ry
     charge density cutoff     =     360.0000  Ry
     Exchange-correlation= SLA  PW   NOGX NOGC
                           (   1   4   0   0   0   0   0)

     celldm(1)=   5.892351  celldm(2)=   0.000000  celldm(3)=   4.667068
     celldm(4)=   0.000000  celldm(5)=   0.000000  celldm(6)=   0.000000

     crystal axes: (cart. coord. in units of alat)
               a(1) = (   1.000000   0.000000   0.000000 )  
               a(2) = (  -0.500000   0.866025   0.000000 )  
               a(3) = (   0.000000   0.000000   4.667068 )  

     reciprocal axes: (cart. coord. in units 2 pi/alat)
               b(1) = (  1.000000  0.577350 -0.000000 )  
               b(2) = (  0.000000  1.154701  0.000000 )  
               b(3) = (  0.000000 -0.000000  0.214267 )  


     PseudoPot. # 1 for Al read from file:
     ./pseudo/Al.dojo.LDA.upf
     MD5 check sum: ba9f5f198b9667a0d06c5b1d7daf412e
     Pseudo is Norm-conserving + core correction, Zval =  3.0
     Generated using ONCVPSP code by D. R. Hamann
     Using radial grid of 1854 points,  6 beta functions with: 
                l(1) =   0
                l(2) =   0
                l(3) =   1
                l(4) =   1
                l(5) =   2
                l(6) =   2

     PseudoPot. # 2 for N  read from file:
     ./pseudo/N.dojo.LDA.upf
     MD5 check sum: f7cfb052850314c53fa2901765c0b356
     Pseudo is Norm-conserving + core correction, Zval =  5.0
     Generated using ONCVPSP code by D. R. Hamann
     Using radial grid of 1058 points,  4 beta functions with: 
                l(1) =   0
                l(2) =   0
                l(3) =   1
                l(4) =   1

     atomic species   valence    mass     pseudopotential
     Al                3.00     1.00000     Al( 1.00)
     N                 5.00     1.00000     N ( 1.00)

     No symmetry found


                                    s                        frac. trans.

      isym =  1     identity                                     

 cryst.   s( 1) = (     1          0          0      )
                  (     0          1          0      )
                  (     0          0          1      )

 cart.    s( 1) = (  1.0000000  0.0000000  0.0000000 )
                  (  0.0000000  1.0000000  0.0000000 )
                  (  0.0000000  0.0000000  1.0000000 )


     point group C_1 (1)    
     there are  1 classes
     the character table:

       E    
A      1.00

     the symmetry operations in each class and the name of the first element:

     E        1
          identity                                               

   Cartesian axes

     site n.     atom                  positions (alat units)
         1        N      tau(   1) = (   0.0000000   0.5773503   0.0000000  )
         2        Al     tau(   2) = (   0.5000000   0.2886751   0.0000000  )

   Crystallographic axes

     site n.     atom                  positions (cryst. coord.)
         1        N      tau(   1) = (  0.3333333  0.6666667  0.0000000  )
         2        Al     tau(   2) = (  0.6666667  0.3333333  0.0000000  )

     number of k points=   324
                       cart. coord. in units 2pi/alat
        k(    1) = (   0.0277778   0.0481125   0.0000000), wk =   0.0061728
        k(    2) = (   0.0277778   0.1122626   0.0000000), wk =   0.0061728
        k(    3) = (   0.0277778   0.1764126   0.0000000), wk =   0.0061728
        k(    4) = (   0.0277778   0.2405626   0.0000000), wk =   0.0061728
        k(    5) = (   0.0277778   0.3047126   0.0000000), wk =   0.0061728
        k(    6) = (   0.0277778   0.3688627   0.0000000), wk =   0.0061728
        k(    7) = (   0.0277778   0.4330127   0.0000000), wk =   0.0061728
        k(    8) = (   0.0277778   0.4971627   0.0000000), wk =   0.0061728
        k(    9) = (   0.0277778   0.5613128   0.0000000), wk =   0.0061728
        k(   10) = (   0.0277778  -0.5292377   0.0000000), wk =   0.0061728
        k(   11) = (   0.0277778  -0.4650877   0.0000000), wk =   0.0061728
        k(   12) = (   0.0277778  -0.4009377   0.0000000), wk =   0.0061728
        k(   13) = (   0.0277778  -0.3367877   0.0000000), wk =   0.0061728
        k(   14) = (   0.0277778  -0.2726376   0.0000000), wk =   0.0061728
        k(   15) = (   0.0277778  -0.2084876   0.0000000), wk =   0.0061728
        k(   16) = (   0.0277778  -0.1443376   0.0000000), wk =   0.0061728
        k(   17) = (   0.0277778  -0.0801875   0.0000000), wk =   0.0061728
        k(   18) = (   0.0277778  -0.0160375   0.0000000), wk =   0.0061728
        k(   19) = (   0.0833333   0.0801875   0.0000000), wk =   0.0061728
        k(   20) = (   0.0833333   0.1443376   0.0000000), wk =   0.0061728
        k(   21) = (   0.0833333   0.2084876   0.0000000), wk =   0.0061728
        k(   22) = (   0.0833333   0.2726376   0.0000000), wk =   0.0061728
        k(   23) = (   0.0833333   0.3367877   0.0000000), wk =   0.0061728
        k(   24) = (   0.0833333   0.4009377   0.0000000), wk =   0.0061728
        k(   25) = (   0.0833333   0.4650877   0.0000000), wk =   0.0061728
        k(   26) = (   0.0833333   0.5292377   0.0000000), wk =   0.0061728
        k(   27) = (   0.0833333   0.5933878   0.0000000), wk =   0.0061728
        k(   28) = (   0.0833333  -0.4971627   0.0000000), wk =   0.0061728
        k(   29) = (   0.0833333  -0.4330127   0.0000000), wk =   0.0061728
        k(   30) = (   0.0833333  -0.3688627   0.0000000), wk =   0.0061728
        k(   31) = (   0.0833333  -0.3047126   0.0000000), wk =   0.0061728
        k(   32) = (   0.0833333  -0.2405626   0.0000000), wk =   0.0061728
        k(   33) = (   0.0833333  -0.1764126   0.0000000), wk =   0.0061728
        k(   34) = (   0.0833333  -0.1122626   0.0000000), wk =   0.0061728
        k(   35) = (   0.0833333  -0.0481125   0.0000000), wk =   0.0061728
        k(   36) = (   0.0833333   0.0160375   0.0000000), wk =   0.0061728
        k(   37) = (   0.1388889   0.1122626   0.0000000), wk =   0.0061728
        k(   38) = (   0.1388889   0.1764126   0.0000000), wk =   0.0061728
        k(   39) = (   0.1388889   0.2405626   0.0000000), wk =   0.0061728
        k(   40) = (   0.1388889   0.3047126   0.0000000), wk =   0.0061728
        k(   41) = (   0.1388889   0.3688627   0.0000000), wk =   0.0061728
        k(   42) = (   0.1388889   0.4330127   0.0000000), wk =   0.0061728
        k(   43) = (   0.1388889   0.4971627   0.0000000), wk =   0.0061728
        k(   44) = (   0.1388889   0.5613128   0.0000000), wk =   0.0061728
        k(   45) = (   0.1388889   0.6254628   0.0000000), wk =   0.0061728
        k(   46) = (   0.1388889  -0.4650877   0.0000000), wk =   0.0061728
        k(   47) = (   0.1388889  -0.4009377   0.0000000), wk =   0.0061728
        k(   48) = (   0.1388889  -0.3367877   0.0000000), wk =   0.0061728
        k(   49) = (   0.1388889  -0.2726376   0.0000000), wk =   0.0061728
        k(   50) = (   0.1388889  -0.2084876   0.0000000), wk =   0.0061728
        k(   51) = (   0.1388889  -0.1443376   0.0000000), wk =   0.0061728
        k(   52) = (   0.1388889  -0.0801875   0.0000000), wk =   0.0061728
        k(   53) = (   0.1388889  -0.0160375   0.0000000), wk =   0.0061728
        k(   54) = (   0.1388889   0.0481125   0.0000000), wk =   0.0061728
        k(   55) = (   0.1944444   0.1443376   0.0000000), wk =   0.0061728
        k(   56) = (   0.1944444   0.2084876   0.0000000), wk =   0.0061728
        k(   57) = (   0.1944444   0.2726376   0.0000000), wk =   0.0061728
        k(   58) = (   0.1944444   0.3367877   0.0000000), wk =   0.0061728
        k(   59) = (   0.1944444   0.4009377   0.0000000), wk =   0.0061728
        k(   60) = (   0.1944444   0.4650877   0.0000000), wk =   0.0061728
        k(   61) = (   0.1944444   0.5292377   0.0000000), wk =   0.0061728
        k(   62) = (   0.1944444   0.5933878   0.0000000), wk =   0.0061728
        k(   63) = (   0.1944444   0.6575378   0.0000000), wk =   0.0061728
        k(   64) = (   0.1944444  -0.4330127   0.0000000), wk =   0.0061728
        k(   65) = (   0.1944444  -0.3688627   0.0000000), wk =   0.0061728
        k(   66) = (   0.1944444  -0.3047126   0.0000000), wk =   0.0061728
        k(   67) = (   0.1944444  -0.2405626   0.0000000), wk =   0.0061728
        k(   68) = (   0.1944444  -0.1764126   0.0000000), wk =   0.0061728
        k(   69) = (   0.1944444  -0.1122626   0.0000000), wk =   0.0061728
        k(   70) = (   0.1944444  -0.0481125   0.0000000), wk =   0.0061728
        k(   71) = (   0.1944444   0.0160375   0.0000000), wk =   0.0061728
        k(   72) = (   0.1944444   0.0801875   0.0000000), wk =   0.0061728
        k(   73) = (   0.2500000   0.1764126   0.0000000), wk =   0.0061728
        k(   74) = (   0.2500000   0.2405626   0.0000000), wk =   0.0061728
        k(   75) = (   0.2500000   0.3047126   0.0000000), wk =   0.0061728
        k(   76) = (   0.2500000   0.3688627   0.0000000), wk =   0.0061728
        k(   77) = (   0.2500000   0.4330127   0.0000000), wk =   0.0061728
        k(   78) = (   0.2500000   0.4971627   0.0000000), wk =   0.0061728
        k(   79) = (   0.2500000   0.5613128   0.0000000), wk =   0.0061728
        k(   80) = (   0.2500000   0.6254628   0.0000000), wk =   0.0061728
        k(   81) = (   0.2500000   0.6896128   0.0000000), wk =   0.0061728
        k(   82) = (   0.2500000  -0.4009377   0.0000000), wk =   0.0061728
        k(   83) = (   0.2500000  -0.3367877   0.0000000), wk =   0.0061728
        k(   84) = (   0.2500000  -0.2726376   0.0000000), wk =   0.0061728
        k(   85) = (   0.2500000  -0.2084876   0.0000000), wk =   0.0061728
        k(   86) = (   0.2500000  -0.1443376   0.0000000), wk =   0.0061728
        k(   87) = (   0.2500000  -0.0801875   0.0000000), wk =   0.0061728
        k(   88) = (   0.2500000  -0.0160375   0.0000000), wk =   0.0061728
        k(   89) = (   0.2500000   0.0481125   0.0000000), wk =   0.0061728
        k(   90) = (   0.2500000   0.1122626   0.0000000), wk =   0.0061728
        k(   91) = (   0.3055556   0.2084876   0.0000000), wk =   0.0061728
        k(   92) = (   0.3055556   0.2726376   0.0000000), wk =   0.0061728
        k(   93) = (   0.3055556   0.3367877   0.0000000), wk =   0.0061728
        k(   94) = (   0.3055556   0.4009377   0.0000000), wk =   0.0061728
        k(   95) = (   0.3055556   0.4650877   0.0000000), wk =   0.0061728
        k(   96) = (   0.3055556   0.5292377   0.0000000), wk =   0.0061728
        k(   97) = (   0.3055556   0.5933878   0.0000000), wk =   0.0061728
        k(   98) = (   0.3055556   0.6575378   0.0000000), wk =   0.0061728
        k(   99) = (   0.3055556   0.7216878   0.0000000), wk =   0.0061728
        k(  100) = (   0.3055556  -0.3688627   0.0000000), wk =   0.0061728
        k(  101) = (   0.3055556  -0.3047126   0.0000000), wk =   0.0061728
        k(  102) = (   0.3055556  -0.2405626   0.0000000), wk =   0.0061728
        k(  103) = (   0.3055556  -0.1764126   0.0000000), wk =   0.0061728
        k(  104) = (   0.3055556  -0.1122626   0.0000000), wk =   0.0061728
        k(  105) = (   0.3055556  -0.0481125   0.0000000), wk =   0.0061728
        k(  106) = (   0.3055556   0.0160375   0.0000000), wk =   0.0061728
        k(  107) = (   0.3055556   0.0801875   0.0000000), wk =   0.0061728
        k(  108) = (   0.3055556   0.1443376   0.0000000), wk =   0.0061728
        k(  109) = (   0.3611111   0.2405626   0.0000000), wk =   0.0061728
        k(  110) = (   0.3611111   0.3047126   0.0000000), wk =   0.0061728
        k(  111) = (   0.3611111   0.3688627   0.0000000), wk =   0.0061728
        k(  112) = (   0.3611111   0.4330127   0.0000000), wk =   0.0061728
        k(  113) = (   0.3611111   0.4971627   0.0000000), wk =   0.0061728
        k(  114) = (   0.3611111   0.5613128   0.0000000), wk =   0.0061728
        k(  115) = (   0.3611111   0.6254628   0.0000000), wk =   0.0061728
        k(  116) = (   0.3611111   0.6896128   0.0000000), wk =   0.0061728
        k(  117) = (   0.3611111   0.7537629   0.0000000), wk =   0.0061728
        k(  118) = (   0.3611111  -0.3367877   0.0000000), wk =   0.0061728
        k(  119) = (   0.3611111  -0.2726376   0.0000000), wk =   0.0061728
        k(  120) = (   0.3611111  -0.2084876   0.0000000), wk =   0.0061728
        k(  121) = (   0.3611111  -0.1443376   0.0000000), wk =   0.0061728
        k(  122) = (   0.3611111  -0.0801875   0.0000000), wk =   0.0061728
        k(  123) = (   0.3611111  -0.0160375   0.0000000), wk =   0.0061728
        k(  124) = (   0.3611111   0.0481125   0.0000000), wk =   0.0061728
        k(  125) = (   0.3611111   0.1122626   0.0000000), wk =   0.0061728
        k(  126) = (   0.3611111   0.1764126   0.0000000), wk =   0.0061728
        k(  127) = (   0.4166667   0.2726376   0.0000000), wk =   0.0061728
        k(  128) = (   0.4166667   0.3367877   0.0000000), wk =   0.0061728
        k(  129) = (   0.4166667   0.4009377   0.0000000), wk =   0.0061728
        k(  130) = (   0.4166667   0.4650877   0.0000000), wk =   0.0061728
        k(  131) = (   0.4166667   0.5292377   0.0000000), wk =   0.0061728
        k(  132) = (   0.4166667   0.5933878   0.0000000), wk =   0.0061728
        k(  133) = (   0.4166667   0.6575378   0.0000000), wk =   0.0061728
        k(  134) = (   0.4166667   0.7216878   0.0000000), wk =   0.0061728
        k(  135) = (   0.4166667   0.7858379   0.0000000), wk =   0.0061728
        k(  136) = (   0.4166667  -0.3047126   0.0000000), wk =   0.0061728
        k(  137) = (   0.4166667  -0.2405626   0.0000000), wk =   0.0061728
        k(  138) = (   0.4166667  -0.1764126   0.0000000), wk =   0.0061728
        k(  139) = (   0.4166667  -0.1122626   0.0000000), wk =   0.0061728
        k(  140) = (   0.4166667  -0.0481125   0.0000000), wk =   0.0061728
        k(  141) = (   0.4166667   0.0160375   0.0000000), wk =   0.0061728
        k(  142) = (   0.4166667   0.0801875   0.0000000), wk =   0.0061728
        k(  143) = (   0.4166667   0.1443376   0.0000000), wk =   0.0061728
        k(  144) = (   0.4166667   0.2084876   0.0000000), wk =   0.0061728
        k(  145) = (   0.4722222   0.3047126   0.0000000), wk =   0.0061728
        k(  146) = (   0.4722222   0.3688627   0.0000000), wk =   0.0061728
        k(  147) = (   0.4722222   0.4330127   0.0000000), wk =   0.0061728
        k(  148) = (   0.4722222   0.4971627   0.0000000), wk =   0.0061728
        k(  149) = (   0.4722222   0.5613128   0.0000000), wk =   0.0061728
        k(  150) = (   0.4722222   0.6254628   0.0000000), wk =   0.0061728
        k(  151) = (   0.4722222   0.6896128   0.0000000), wk =   0.0061728
        k(  152) = (   0.4722222   0.7537629   0.0000000), wk =   0.0061728
        k(  153) = (   0.4722222   0.8179129   0.0000000), wk =   0.0061728
        k(  154) = (   0.4722222  -0.2726376   0.0000000), wk =   0.0061728
        k(  155) = (   0.4722222  -0.2084876   0.0000000), wk =   0.0061728
        k(  156) = (   0.4722222  -0.1443376   0.0000000), wk =   0.0061728
        k(  157) = (   0.4722222  -0.0801875   0.0000000), wk =   0.0061728
        k(  158) = (   0.4722222  -0.0160375   0.0000000), wk =   0.0061728
        k(  159) = (   0.4722222   0.0481125   0.0000000), wk =   0.0061728
        k(  160) = (   0.4722222   0.1122626   0.0000000), wk =   0.0061728
        k(  161) = (   0.4722222   0.1764126   0.0000000), wk =   0.0061728
        k(  162) = (   0.4722222   0.2405626   0.0000000), wk =   0.0061728
        k(  163) = (  -0.4722222  -0.2405626   0.0000000), wk =   0.0061728
        k(  164) = (  -0.4722222  -0.1764126   0.0000000), wk =   0.0061728
        k(  165) = (  -0.4722222  -0.1122626   0.0000000), wk =   0.0061728
        k(  166) = (  -0.4722222  -0.0481125   0.0000000), wk =   0.0061728
        k(  167) = (  -0.4722222   0.0160375   0.0000000), wk =   0.0061728
        k(  168) = (  -0.4722222   0.0801875   0.0000000), wk =   0.0061728
        k(  169) = (  -0.4722222   0.1443376   0.0000000), wk =   0.0061728
        k(  170) = (  -0.4722222   0.2084876   0.0000000), wk =   0.0061728
        k(  171) = (  -0.4722222   0.2726376   0.0000000), wk =   0.0061728
        k(  172) = (  -0.4722222  -0.8179129   0.0000000), wk =   0.0061728
        k(  173) = (  -0.4722222  -0.7537629   0.0000000), wk =   0.0061728
        k(  174) = (  -0.4722222  -0.6896128   0.0000000), wk =   0.0061728
        k(  175) = (  -0.4722222  -0.6254628   0.0000000), wk =   0.0061728
        k(  176) = (  -0.4722222  -0.5613128   0.0000000), wk =   0.0061728
        k(  177) = (  -0.4722222  -0.4971627   0.0000000), wk =   0.0061728
        k(  178) = (  -0.4722222  -0.4330127   0.0000000), wk =   0.0061728
        k(  179) = (  -0.4722222  -0.3688627   0.0000000), wk =   0.0061728
        k(  180) = (  -0.4722222  -0.3047126   0.0000000), wk =   0.0061728
        k(  181) = (  -0.4166667  -0.2084876   0.0000000), wk =   0.0061728
        k(  182) = (  -0.4166667  -0.1443376   0.0000000), wk =   0.0061728
        k(  183) = (  -0.4166667  -0.0801875   0.0000000), wk =   0.0061728
        k(  184) = (  -0.4166667  -0.0160375   0.0000000), wk =   0.0061728
        k(  185) = (  -0.4166667   0.0481125   0.0000000), wk =   0.0061728
        k(  186) = (  -0.4166667   0.1122626   0.0000000), wk =   0.0061728
        k(  187) = (  -0.4166667   0.1764126   0.0000000), wk =   0.0061728
        k(  188) = (  -0.4166667   0.2405626   0.0000000), wk =   0.0061728
        k(  189) = (  -0.4166667   0.3047126   0.0000000), wk =   0.0061728
        k(  190) = (  -0.4166667  -0.7858379   0.0000000), wk =   0.0061728
        k(  191) = (  -0.4166667  -0.7216878   0.0000000), wk =   0.0061728
        k(  192) = (  -0.4166667  -0.6575378   0.0000000), wk =   0.0061728
        k(  193) = (  -0.4166667  -0.5933878   0.0000000), wk =   0.0061728
        k(  194) = (  -0.4166667  -0.5292377   0.0000000), wk =   0.0061728
        k(  195) = (  -0.4166667  -0.4650877   0.0000000), wk =   0.0061728
        k(  196) = (  -0.4166667  -0.4009377   0.0000000), wk =   0.0061728
        k(  197) = (  -0.4166667  -0.3367877   0.0000000), wk =   0.0061728
        k(  198) = (  -0.4166667  -0.2726376   0.0000000), wk =   0.0061728
        k(  199) = (  -0.3611111  -0.1764126   0.0000000), wk =   0.0061728
        k(  200) = (  -0.3611111  -0.1122626   0.0000000), wk =   0.0061728
        k(  201) = (  -0.3611111  -0.0481125   0.0000000), wk =   0.0061728
        k(  202) = (  -0.3611111   0.0160375   0.0000000), wk =   0.0061728
        k(  203) = (  -0.3611111   0.0801875   0.0000000), wk =   0.0061728
        k(  204) = (  -0.3611111   0.1443376   0.0000000), wk =   0.0061728
        k(  205) = (  -0.3611111   0.2084876   0.0000000), wk =   0.0061728
        k(  206) = (  -0.3611111   0.2726376   0.0000000), wk =   0.0061728
        k(  207) = (  -0.3611111   0.3367877   0.0000000), wk =   0.0061728
        k(  208) = (  -0.3611111  -0.7537629   0.0000000), wk =   0.0061728
        k(  209) = (  -0.3611111  -0.6896128   0.0000000), wk =   0.0061728
        k(  210) = (  -0.3611111  -0.6254628   0.0000000), wk =   0.0061728
        k(  211) = (  -0.3611111  -0.5613128   0.0000000), wk =   0.0061728
        k(  212) = (  -0.3611111  -0.4971627   0.0000000), wk =   0.0061728
        k(  213) = (  -0.3611111  -0.4330127   0.0000000), wk =   0.0061728
        k(  214) = (  -0.3611111  -0.3688627   0.0000000), wk =   0.0061728
        k(  215) = (  -0.3611111  -0.3047126   0.0000000), wk =   0.0061728
        k(  216) = (  -0.3611111  -0.2405626   0.0000000), wk =   0.0061728
        k(  217) = (  -0.3055556  -0.1443376   0.0000000), wk =   0.0061728
        k(  218) = (  -0.3055556  -0.0801875   0.0000000), wk =   0.0061728
        k(  219) = (  -0.3055556  -0.0160375   0.0000000), wk =   0.0061728
        k(  220) = (  -0.3055556   0.0481125   0.0000000), wk =   0.0061728
        k(  221) = (  -0.3055556   0.1122626   0.0000000), wk =   0.0061728
        k(  222) = (  -0.3055556   0.1764126   0.0000000), wk =   0.0061728
        k(  223) = (  -0.3055556   0.2405626   0.0000000), wk =   0.0061728
        k(  224) = (  -0.3055556   0.3047126   0.0000000), wk =   0.0061728
        k(  225) = (  -0.3055556   0.3688627   0.0000000), wk =   0.0061728
        k(  226) = (  -0.3055556  -0.7216878   0.0000000), wk =   0.0061728
        k(  227) = (  -0.3055556  -0.6575378   0.0000000), wk =   0.0061728
        k(  228) = (  -0.3055556  -0.5933878   0.0000000), wk =   0.0061728
        k(  229) = (  -0.3055556  -0.5292377   0.0000000), wk =   0.0061728
        k(  230) = (  -0.3055556  -0.4650877   0.0000000), wk =   0.0061728
        k(  231) = (  -0.3055556  -0.4009377   0.0000000), wk =   0.0061728
        k(  232) = (  -0.3055556  -0.3367877   0.0000000), wk =   0.0061728
        k(  233) = (  -0.3055556  -0.2726376   0.0000000), wk =   0.0061728
        k(  234) = (  -0.3055556  -0.2084876   0.0000000), wk =   0.0061728
        k(  235) = (  -0.2500000  -0.1122626   0.0000000), wk =   0.0061728
        k(  236) = (  -0.2500000  -0.0481125   0.0000000), wk =   0.0061728
        k(  237) = (  -0.2500000   0.0160375   0.0000000), wk =   0.0061728
        k(  238) = (  -0.2500000   0.0801875   0.0000000), wk =   0.0061728
        k(  239) = (  -0.2500000   0.1443376   0.0000000), wk =   0.0061728
        k(  240) = (  -0.2500000   0.2084876   0.0000000), wk =   0.0061728
        k(  241) = (  -0.2500000   0.2726376   0.0000000), wk =   0.0061728
        k(  242) = (  -0.2500000   0.3367877   0.0000000), wk =   0.0061728
        k(  243) = (  -0.2500000   0.4009377   0.0000000), wk =   0.0061728
        k(  244) = (  -0.2500000  -0.6896128   0.0000000), wk =   0.0061728
        k(  245) = (  -0.2500000  -0.6254628   0.0000000), wk =   0.0061728
        k(  246) = (  -0.2500000  -0.5613128   0.0000000), wk =   0.0061728
        k(  247) = (  -0.2500000  -0.4971627   0.0000000), wk =   0.0061728
        k(  248) = (  -0.2500000  -0.4330127   0.0000000), wk =   0.0061728
        k(  249) = (  -0.2500000  -0.3688627   0.0000000), wk =   0.0061728
        k(  250) = (  -0.2500000  -0.3047126   0.0000000), wk =   0.0061728
        k(  251) = (  -0.2500000  -0.2405626   0.0000000), wk =   0.0061728
        k(  252) = (  -0.2500000  -0.1764126   0.0000000), wk =   0.0061728
        k(  253) = (  -0.1944444  -0.0801875   0.0000000), wk =   0.0061728
        k(  254) = (  -0.1944444  -0.0160375   0.0000000), wk =   0.0061728
        k(  255) = (  -0.1944444   0.0481125   0.0000000), wk =   0.0061728
        k(  256) = (  -0.1944444   0.1122626   0.0000000), wk =   0.0061728
        k(  257) = (  -0.1944444   0.1764126   0.0000000), wk =   0.0061728
        k(  258) = (  -0.1944444   0.2405626   0.0000000), wk =   0.0061728
        k(  259) = (  -0.1944444   0.3047126   0.0000000), wk =   0.0061728
        k(  260) = (  -0.1944444   0.3688627   0.0000000), wk =   0.0061728
        k(  261) = (  -0.1944444   0.4330127   0.0000000), wk =   0.0061728
        k(  262) = (  -0.1944444  -0.6575378   0.0000000), wk =   0.0061728
        k(  263) = (  -0.1944444  -0.5933878   0.0000000), wk =   0.0061728
        k(  264) = (  -0.1944444  -0.5292377   0.0000000), wk =   0.0061728
        k(  265) = (  -0.1944444  -0.4650877   0.0000000), wk =   0.0061728
        k(  266) = (  -0.1944444  -0.4009377   0.0000000), wk =   0.0061728
        k(  267) = (  -0.1944444  -0.3367877   0.0000000), wk =   0.0061728
        k(  268) = (  -0.1944444  -0.2726376   0.0000000), wk =   0.0061728
        k(  269) = (  -0.1944444  -0.2084876   0.0000000), wk =   0.0061728
        k(  270) = (  -0.1944444  -0.1443376   0.0000000), wk =   0.0061728
        k(  271) = (  -0.1388889  -0.0481125   0.0000000), wk =   0.0061728
        k(  272) = (  -0.1388889   0.0160375   0.0000000), wk =   0.0061728
        k(  273) = (  -0.1388889   0.0801875   0.0000000), wk =   0.0061728
        k(  274) = (  -0.1388889   0.1443376   0.0000000), wk =   0.0061728
        k(  275) = (  -0.1388889   0.2084876   0.0000000), wk =   0.0061728
        k(  276) = (  -0.1388889   0.2726376   0.0000000), wk =   0.0061728
        k(  277) = (  -0.1388889   0.3367877   0.0000000), wk =   0.0061728
        k(  278) = (  -0.1388889   0.4009377   0.0000000), wk =   0.0061728
        k(  279) = (  -0.1388889   0.4650877   0.0000000), wk =   0.0061728
        k(  280) = (  -0.1388889  -0.6254628   0.0000000), wk =   0.0061728
        k(  281) = (  -0.1388889  -0.5613128   0.0000000), wk =   0.0061728
        k(  282) = (  -0.1388889  -0.4971627   0.0000000), wk =   0.0061728
        k(  283) = (  -0.1388889  -0.4330127   0.0000000), wk =   0.0061728
        k(  284) = (  -0.1388889  -0.3688627   0.0000000), wk =   0.0061728
        k(  285) = (  -0.1388889  -0.3047126   0.0000000), wk =   0.0061728
        k(  286) = (  -0.1388889  -0.2405626   0.0000000), wk =   0.0061728
        k(  287) = (  -0.1388889  -0.1764126   0.0000000), wk =   0.0061728
        k(  288) = (  -0.1388889  -0.1122626   0.0000000), wk =   0.0061728
        k(  289) = (  -0.0833333  -0.0160375   0.0000000), wk =   0.0061728
        k(  290) = (  -0.0833333   0.0481125   0.0000000), wk =   0.0061728
        k(  291) = (  -0.0833333   0.1122626   0.0000000), wk =   0.0061728
        k(  292) = (  -0.0833333   0.1764126   0.0000000), wk =   0.0061728
        k(  293) = (  -0.0833333   0.2405626   0.0000000), wk =   0.0061728
        k(  294) = (  -0.0833333   0.3047126   0.0000000), wk =   0.0061728
        k(  295) = (  -0.0833333   0.3688627   0.0000000), wk =   0.0061728
        k(  296) = (  -0.0833333   0.4330127   0.0000000), wk =   0.0061728
        k(  297) = (  -0.0833333   0.4971627   0.0000000), wk =   0.0061728
        k(  298) = (  -0.0833333  -0.5933878   0.0000000), wk =   0.0061728
        k(  299) = (  -0.0833333  -0.5292377   0.0000000), wk =   0.0061728
        k(  300) = (  -0.0833333  -0.4650877   0.0000000), wk =   0.0061728
        k(  301) = (  -0.0833333  -0.4009377   0.0000000), wk =   0.0061728
        k(  302) = (  -0.0833333  -0.3367877   0.0000000), wk =   0.0061728
        k(  303) = (  -0.0833333  -0.2726376   0.0000000), wk =   0.0061728
        k(  304) = (  -0.0833333  -0.2084876   0.0000000), wk =   0.0061728
        k(  305) = (  -0.0833333  -0.1443376   0.0000000), wk =   0.0061728
        k(  306) = (  -0.0833333  -0.0801875   0.0000000), wk =   0.0061728
        k(  307) = (  -0.0277778   0.0160375   0.0000000), wk =   0.0061728
        k(  308) = (  -0.0277778   0.0801875   0.0000000), wk =   0.0061728
        k(  309) = (  -0.0277778   0.1443376   0.0000000), wk =   0.0061728
        k(  310) = (  -0.0277778   0.2084876   0.0000000), wk =   0.0061728
        k(  311) = (  -0.0277778   0.2726376   0.0000000), wk =   0.0061728
        k(  312) = (  -0.0277778   0.3367877   0.0000000), wk =   0.0061728
        k(  313) = (  -0.0277778   0.4009377   0.0000000), wk =   0.0061728
        k(  314) = (  -0.0277778   0.4650877   0.0000000), wk =   0.0061728
        k(  315) = (  -0.0277778   0.5292377   0.0000000), wk =   0.0061728
        k(  316) = (  -0.0277778  -0.5613128   0.0000000), wk =   0.0061728
        k(  317) = (  -0.0277778  -0.4971627   0.0000000), wk =   0.0061728
        k(  318) = (  -0.0277778  -0.4330127   0.0000000), wk =   0.0061728
        k(  319) = (  -0.0277778  -0.3688627   0.0000000), wk =   0.0061728
        k(  320) = (  -0.0277778  -0.3047126   0.0000000), wk =   0.0061728
        k(  321) = (  -0.0277778  -0.2405626   0.0000000), wk =   0.0061728
        k(  322) = (  -0.0277778  -0.1764126   0.0000000), wk =   0.0061728
        k(  323) = (  -0.0277778  -0.1122626   0.0000000), wk =   0.0061728
        k(  324) = (  -0.0277778  -0.0481125   0.0000000), wk =   0.0061728

                       cryst. coord.
        k(    1) = (   0.0277778   0.0277778   0.0000000), wk =   0.0061728
        k(    2) = (   0.0277778   0.0833333   0.0000000), wk =   0.0061728
        k(    3) = (   0.0277778   0.1388889   0.0000000), wk =   0.0061728
        k(    4) = (   0.0277778   0.1944444   0.0000000), wk =   0.0061728
        k(    5) = (   0.0277778   0.2500000   0.0000000), wk =   0.0061728
        k(    6) = (   0.0277778   0.3055556   0.0000000), wk =   0.0061728
        k(    7) = (   0.0277778   0.3611111   0.0000000), wk =   0.0061728
        k(    8) = (   0.0277778   0.4166667   0.0000000), wk =   0.0061728
        k(    9) = (   0.0277778   0.4722222   0.0000000), wk =   0.0061728
        k(   10) = (   0.0277778  -0.4722222   0.0000000), wk =   0.0061728
        k(   11) = (   0.0277778  -0.4166667   0.0000000), wk =   0.0061728
        k(   12) = (   0.0277778  -0.3611111   0.0000000), wk =   0.0061728
        k(   13) = (   0.0277778  -0.3055556   0.0000000), wk =   0.0061728
        k(   14) = (   0.0277778  -0.2500000   0.0000000), wk =   0.0061728
        k(   15) = (   0.0277778  -0.1944444   0.0000000), wk =   0.0061728
        k(   16) = (   0.0277778  -0.1388889   0.0000000), wk =   0.0061728
        k(   17) = (   0.0277778  -0.0833333   0.0000000), wk =   0.0061728
        k(   18) = (   0.0277778  -0.0277778   0.0000000), wk =   0.0061728
        k(   19) = (   0.0833333   0.0277778   0.0000000), wk =   0.0061728
        k(   20) = (   0.0833333   0.0833333   0.0000000), wk =   0.0061728
        k(   21) = (   0.0833333   0.1388889   0.0000000), wk =   0.0061728
        k(   22) = (   0.0833333   0.1944444   0.0000000), wk =   0.0061728
        k(   23) = (   0.0833333   0.2500000   0.0000000), wk =   0.0061728
        k(   24) = (   0.0833333   0.3055556   0.0000000), wk =   0.0061728
        k(   25) = (   0.0833333   0.3611111   0.0000000), wk =   0.0061728
        k(   26) = (   0.0833333   0.4166667   0.0000000), wk =   0.0061728
        k(   27) = (   0.0833333   0.4722222   0.0000000), wk =   0.0061728
        k(   28) = (   0.0833333  -0.4722222   0.0000000), wk =   0.0061728
        k(   29) = (   0.0833333  -0.4166667   0.0000000), wk =   0.0061728
        k(   30) = (   0.0833333  -0.3611111   0.0000000), wk =   0.0061728
        k(   31) = (   0.0833333  -0.3055556   0.0000000), wk =   0.0061728
        k(   32) = (   0.0833333  -0.2500000   0.0000000), wk =   0.0061728
        k(   33) = (   0.0833333  -0.1944444   0.0000000), wk =   0.0061728
        k(   34) = (   0.0833333  -0.1388889   0.0000000), wk =   0.0061728
        k(   35) = (   0.0833333  -0.0833333   0.0000000), wk =   0.0061728
        k(   36) = (   0.0833333  -0.0277778   0.0000000), wk =   0.0061728
        k(   37) = (   0.1388889   0.0277778   0.0000000), wk =   0.0061728
        k(   38) = (   0.1388889   0.0833333   0.0000000), wk =   0.0061728
        k(   39) = (   0.1388889   0.1388889   0.0000000), wk =   0.0061728
        k(   40) = (   0.1388889   0.1944444   0.0000000), wk =   0.0061728
        k(   41) = (   0.1388889   0.2500000   0.0000000), wk =   0.0061728
        k(   42) = (   0.1388889   0.3055556   0.0000000), wk =   0.0061728
        k(   43) = (   0.1388889   0.3611111   0.0000000), wk =   0.0061728
        k(   44) = (   0.1388889   0.4166667   0.0000000), wk =   0.0061728
        k(   45) = (   0.1388889   0.4722222   0.0000000), wk =   0.0061728
        k(   46) = (   0.1388889  -0.4722222   0.0000000), wk =   0.0061728
        k(   47) = (   0.1388889  -0.4166667   0.0000000), wk =   0.0061728
        k(   48) = (   0.1388889  -0.3611111   0.0000000), wk =   0.0061728
        k(   49) = (   0.1388889  -0.3055556   0.0000000), wk =   0.0061728
        k(   50) = (   0.1388889  -0.2500000   0.0000000), wk =   0.0061728
        k(   51) = (   0.1388889  -0.1944444   0.0000000), wk =   0.0061728
        k(   52) = (   0.1388889  -0.1388889   0.0000000), wk =   0.0061728
        k(   53) = (   0.1388889  -0.0833333   0.0000000), wk =   0.0061728
        k(   54) = (   0.1388889  -0.0277778   0.0000000), wk =   0.0061728
        k(   55) = (   0.1944444   0.0277778   0.0000000), wk =   0.0061728
        k(   56) = (   0.1944444   0.0833333   0.0000000), wk =   0.0061728
        k(   57) = (   0.1944444   0.1388889   0.0000000), wk =   0.0061728
        k(   58) = (   0.1944444   0.1944444   0.0000000), wk =   0.0061728
        k(   59) = (   0.1944444   0.2500000   0.0000000), wk =   0.0061728
        k(   60) = (   0.1944444   0.3055556   0.0000000), wk =   0.0061728
        k(   61) = (   0.1944444   0.3611111   0.0000000), wk =   0.0061728
        k(   62) = (   0.1944444   0.4166667   0.0000000), wk =   0.0061728
        k(   63) = (   0.1944444   0.4722222   0.0000000), wk =   0.0061728
        k(   64) = (   0.1944444  -0.4722222   0.0000000), wk =   0.0061728
        k(   65) = (   0.1944444  -0.4166667   0.0000000), wk =   0.0061728
        k(   66) = (   0.1944444  -0.3611111   0.0000000), wk =   0.0061728
        k(   67) = (   0.1944444  -0.3055556   0.0000000), wk =   0.0061728
        k(   68) = (   0.1944444  -0.2500000   0.0000000), wk =   0.0061728
        k(   69) = (   0.1944444  -0.1944444   0.0000000), wk =   0.0061728
        k(   70) = (   0.1944444  -0.1388889   0.0000000), wk =   0.0061728
        k(   71) = (   0.1944444  -0.0833333   0.0000000), wk =   0.0061728
        k(   72) = (   0.1944444  -0.0277778   0.0000000), wk =   0.0061728
        k(   73) = (   0.2500000   0.0277778   0.0000000), wk =   0.0061728
        k(   74) = (   0.2500000   0.0833333   0.0000000), wk =   0.0061728
        k(   75) = (   0.2500000   0.1388889   0.0000000), wk =   0.0061728
        k(   76) = (   0.2500000   0.1944444   0.0000000), wk =   0.0061728
        k(   77) = (   0.2500000   0.2500000   0.0000000), wk =   0.0061728
        k(   78) = (   0.2500000   0.3055556   0.0000000), wk =   0.0061728
        k(   79) = (   0.2500000   0.3611111   0.0000000), wk =   0.0061728
        k(   80) = (   0.2500000   0.4166667   0.0000000), wk =   0.0061728
        k(   81) = (   0.2500000   0.4722222   0.0000000), wk =   0.0061728
        k(   82) = (   0.2500000  -0.4722222   0.0000000), wk =   0.0061728
        k(   83) = (   0.2500000  -0.4166667   0.0000000), wk =   0.0061728
        k(   84) = (   0.2500000  -0.3611111   0.0000000), wk =   0.0061728
        k(   85) = (   0.2500000  -0.3055556   0.0000000), wk =   0.0061728
        k(   86) = (   0.2500000  -0.2500000   0.0000000), wk =   0.0061728
        k(   87) = (   0.2500000  -0.1944444   0.0000000), wk =   0.0061728
        k(   88) = (   0.2500000  -0.1388889   0.0000000), wk =   0.0061728
        k(   89) = (   0.2500000  -0.0833333   0.0000000), wk =   0.0061728
        k(   90) = (   0.2500000  -0.0277778   0.0000000), wk =   0.0061728
        k(   91) = (   0.3055556   0.0277778   0.0000000), wk =   0.0061728
        k(   92) = (   0.3055556   0.0833333   0.0000000), wk =   0.0061728
        k(   93) = (   0.3055556   0.1388889   0.0000000), wk =   0.0061728
        k(   94) = (   0.3055556   0.1944444   0.0000000), wk =   0.0061728
        k(   95) = (   0.3055556   0.2500000   0.0000000), wk =   0.0061728
        k(   96) = (   0.3055556   0.3055556   0.0000000), wk =   0.0061728
        k(   97) = (   0.3055556   0.3611111   0.0000000), wk =   0.0061728
        k(   98) = (   0.3055556   0.4166667   0.0000000), wk =   0.0061728
        k(   99) = (   0.3055556   0.4722222   0.0000000), wk =   0.0061728
        k(  100) = (   0.3055556  -0.4722222   0.0000000), wk =   0.0061728
        k(  101) = (   0.3055556  -0.4166667   0.0000000), wk =   0.0061728
        k(  102) = (   0.3055556  -0.3611111   0.0000000), wk =   0.0061728
        k(  103) = (   0.3055556  -0.3055556   0.0000000), wk =   0.0061728
        k(  104) = (   0.3055556  -0.2500000   0.0000000), wk =   0.0061728
        k(  105) = (   0.3055556  -0.1944444   0.0000000), wk =   0.0061728
        k(  106) = (   0.3055556  -0.1388889   0.0000000), wk =   0.0061728
        k(  107) = (   0.3055556  -0.0833333   0.0000000), wk =   0.0061728
        k(  108) = (   0.3055556  -0.0277778   0.0000000), wk =   0.0061728
        k(  109) = (   0.3611111   0.0277778   0.0000000), wk =   0.0061728
        k(  110) = (   0.3611111   0.0833333   0.0000000), wk =   0.0061728
        k(  111) = (   0.3611111   0.1388889   0.0000000), wk =   0.0061728
        k(  112) = (   0.3611111   0.1944444   0.0000000), wk =   0.0061728
        k(  113) = (   0.3611111   0.2500000   0.0000000), wk =   0.0061728
        k(  114) = (   0.3611111   0.3055556   0.0000000), wk =   0.0061728
        k(  115) = (   0.3611111   0.3611111   0.0000000), wk =   0.0061728
        k(  116) = (   0.3611111   0.4166667   0.0000000), wk =   0.0061728
        k(  117) = (   0.3611111   0.4722222   0.0000000), wk =   0.0061728
        k(  118) = (   0.3611111  -0.4722222   0.0000000), wk =   0.0061728
        k(  119) = (   0.3611111  -0.4166667   0.0000000), wk =   0.0061728
        k(  120) = (   0.3611111  -0.3611111   0.0000000), wk =   0.0061728
        k(  121) = (   0.3611111  -0.3055556   0.0000000), wk =   0.0061728
        k(  122) = (   0.3611111  -0.2500000   0.0000000), wk =   0.0061728
        k(  123) = (   0.3611111  -0.1944444   0.0000000), wk =   0.0061728
        k(  124) = (   0.3611111  -0.1388889   0.0000000), wk =   0.0061728
        k(  125) = (   0.3611111  -0.0833333   0.0000000), wk =   0.0061728
        k(  126) = (   0.3611111  -0.0277778   0.0000000), wk =   0.0061728
        k(  127) = (   0.4166667   0.0277778   0.0000000), wk =   0.0061728
        k(  128) = (   0.4166667   0.0833333   0.0000000), wk =   0.0061728
        k(  129) = (   0.4166667   0.1388889   0.0000000), wk =   0.0061728
        k(  130) = (   0.4166667   0.1944444   0.0000000), wk =   0.0061728
        k(  131) = (   0.4166667   0.2500000   0.0000000), wk =   0.0061728
        k(  132) = (   0.4166667   0.3055556   0.0000000), wk =   0.0061728
        k(  133) = (   0.4166667   0.3611111   0.0000000), wk =   0.0061728
        k(  134) = (   0.4166667   0.4166667   0.0000000), wk =   0.0061728
        k(  135) = (   0.4166667   0.4722222   0.0000000), wk =   0.0061728
        k(  136) = (   0.4166667  -0.4722222   0.0000000), wk =   0.0061728
        k(  137) = (   0.4166667  -0.4166667   0.0000000), wk =   0.0061728
        k(  138) = (   0.4166667  -0.3611111   0.0000000), wk =   0.0061728
        k(  139) = (   0.4166667  -0.3055556   0.0000000), wk =   0.0061728
        k(  140) = (   0.4166667  -0.2500000   0.0000000), wk =   0.0061728
        k(  141) = (   0.4166667  -0.1944444   0.0000000), wk =   0.0061728
        k(  142) = (   0.4166667  -0.1388889   0.0000000), wk =   0.0061728
        k(  143) = (   0.4166667  -0.0833333   0.0000000), wk =   0.0061728
        k(  144) = (   0.4166667  -0.0277778   0.0000000), wk =   0.0061728
        k(  145) = (   0.4722222   0.0277778   0.0000000), wk =   0.0061728
        k(  146) = (   0.4722222   0.0833333   0.0000000), wk =   0.0061728
        k(  147) = (   0.4722222   0.1388889   0.0000000), wk =   0.0061728
        k(  148) = (   0.4722222   0.1944444   0.0000000), wk =   0.0061728
        k(  149) = (   0.4722222   0.2500000   0.0000000), wk =   0.0061728
        k(  150) = (   0.4722222   0.3055556   0.0000000), wk =   0.0061728
        k(  151) = (   0.4722222   0.3611111   0.0000000), wk =   0.0061728
        k(  152) = (   0.4722222   0.4166667   0.0000000), wk =   0.0061728
        k(  153) = (   0.4722222   0.4722222   0.0000000), wk =   0.0061728
        k(  154) = (   0.4722222  -0.4722222   0.0000000), wk =   0.0061728
        k(  155) = (   0.4722222  -0.4166667   0.0000000), wk =   0.0061728
        k(  156) = (   0.4722222  -0.3611111   0.0000000), wk =   0.0061728
        k(  157) = (   0.4722222  -0.3055556   0.0000000), wk =   0.0061728
        k(  158) = (   0.4722222  -0.2500000   0.0000000), wk =   0.0061728
        k(  159) = (   0.4722222  -0.1944444   0.0000000), wk =   0.0061728
        k(  160) = (   0.4722222  -0.1388889   0.0000000), wk =   0.0061728
        k(  161) = (   0.4722222  -0.0833333   0.0000000), wk =   0.0061728
        k(  162) = (   0.4722222  -0.0277778   0.0000000), wk =   0.0061728
        k(  163) = (  -0.4722222   0.0277778   0.0000000), wk =   0.0061728
        k(  164) = (  -0.4722222   0.0833333   0.0000000), wk =   0.0061728
        k(  165) = (  -0.4722222   0.1388889   0.0000000), wk =   0.0061728
        k(  166) = (  -0.4722222   0.1944444   0.0000000), wk =   0.0061728
        k(  167) = (  -0.4722222   0.2500000   0.0000000), wk =   0.0061728
        k(  168) = (  -0.4722222   0.3055556   0.0000000), wk =   0.0061728
        k(  169) = (  -0.4722222   0.3611111   0.0000000), wk =   0.0061728
        k(  170) = (  -0.4722222   0.4166667   0.0000000), wk =   0.0061728
        k(  171) = (  -0.4722222   0.4722222   0.0000000), wk =   0.0061728
        k(  172) = (  -0.4722222  -0.4722222   0.0000000), wk =   0.0061728
        k(  173) = (  -0.4722222  -0.4166667   0.0000000), wk =   0.0061728
        k(  174) = (  -0.4722222  -0.3611111   0.0000000), wk =   0.0061728
        k(  175) = (  -0.4722222  -0.3055556   0.0000000), wk =   0.0061728
        k(  176) = (  -0.4722222  -0.2500000   0.0000000), wk =   0.0061728
        k(  177) = (  -0.4722222  -0.1944444   0.0000000), wk =   0.0061728
        k(  178) = (  -0.4722222  -0.1388889   0.0000000), wk =   0.0061728
        k(  179) = (  -0.4722222  -0.0833333   0.0000000), wk =   0.0061728
        k(  180) = (  -0.4722222  -0.0277778   0.0000000), wk =   0.0061728
        k(  181) = (  -0.4166667   0.0277778   0.0000000), wk =   0.0061728
        k(  182) = (  -0.4166667   0.0833333   0.0000000), wk =   0.0061728
        k(  183) = (  -0.4166667   0.1388889   0.0000000), wk =   0.0061728
        k(  184) = (  -0.4166667   0.1944444   0.0000000), wk =   0.0061728
        k(  185) = (  -0.4166667   0.2500000   0.0000000), wk =   0.0061728
        k(  186) = (  -0.4166667   0.3055556   0.0000000), wk =   0.0061728
        k(  187) = (  -0.4166667   0.3611111   0.0000000), wk =   0.0061728
        k(  188) = (  -0.4166667   0.4166667   0.0000000), wk =   0.0061728
        k(  189) = (  -0.4166667   0.4722222   0.0000000), wk =   0.0061728
        k(  190) = (  -0.4166667  -0.4722222   0.0000000), wk =   0.0061728
        k(  191) = (  -0.4166667  -0.4166667   0.0000000), wk =   0.0061728
        k(  192) = (  -0.4166667  -0.3611111   0.0000000), wk =   0.0061728
        k(  193) = (  -0.4166667  -0.3055556   0.0000000), wk =   0.0061728
        k(  194) = (  -0.4166667  -0.2500000   0.0000000), wk =   0.0061728
        k(  195) = (  -0.4166667  -0.1944444   0.0000000), wk =   0.0061728
        k(  196) = (  -0.4166667  -0.1388889   0.0000000), wk =   0.0061728
        k(  197) = (  -0.4166667  -0.0833333   0.0000000), wk =   0.0061728
        k(  198) = (  -0.4166667  -0.0277778   0.0000000), wk =   0.0061728
        k(  199) = (  -0.3611111   0.0277778   0.0000000), wk =   0.0061728
        k(  200) = (  -0.3611111   0.0833333   0.0000000), wk =   0.0061728
        k(  201) = (  -0.3611111   0.1388889   0.0000000), wk =   0.0061728
        k(  202) = (  -0.3611111   0.1944444   0.0000000), wk =   0.0061728
        k(  203) = (  -0.3611111   0.2500000   0.0000000), wk =   0.0061728
        k(  204) = (  -0.3611111   0.3055556   0.0000000), wk =   0.0061728
        k(  205) = (  -0.3611111   0.3611111   0.0000000), wk =   0.0061728
        k(  206) = (  -0.3611111   0.4166667   0.0000000), wk =   0.0061728
        k(  207) = (  -0.3611111   0.4722222   0.0000000), wk =   0.0061728
        k(  208) = (  -0.3611111  -0.4722222   0.0000000), wk =   0.0061728
        k(  209) = (  -0.3611111  -0.4166667   0.0000000), wk =   0.0061728
        k(  210) = (  -0.3611111  -0.3611111   0.0000000), wk =   0.0061728
        k(  211) = (  -0.3611111  -0.3055556   0.0000000), wk =   0.0061728
        k(  212) = (  -0.3611111  -0.2500000   0.0000000), wk =   0.0061728
        k(  213) = (  -0.3611111  -0.1944444   0.0000000), wk =   0.0061728
        k(  214) = (  -0.3611111  -0.1388889   0.0000000), wk =   0.0061728
        k(  215) = (  -0.3611111  -0.0833333   0.0000000), wk =   0.0061728
        k(  216) = (  -0.3611111  -0.0277778   0.0000000), wk =   0.0061728
        k(  217) = (  -0.3055556   0.0277778   0.0000000), wk =   0.0061728
        k(  218) = (  -0.3055556   0.0833333   0.0000000), wk =   0.0061728
        k(  219) = (  -0.3055556   0.1388889   0.0000000), wk =   0.0061728
        k(  220) = (  -0.3055556   0.1944444   0.0000000), wk =   0.0061728
        k(  221) = (  -0.3055556   0.2500000   0.0000000), wk =   0.0061728
        k(  222) = (  -0.3055556   0.3055556   0.0000000), wk =   0.0061728
        k(  223) = (  -0.3055556   0.3611111   0.0000000), wk =   0.0061728
        k(  224) = (  -0.3055556   0.4166667   0.0000000), wk =   0.0061728
        k(  225) = (  -0.3055556   0.4722222   0.0000000), wk =   0.0061728
        k(  226) = (  -0.3055556  -0.4722222   0.0000000), wk =   0.0061728
        k(  227) = (  -0.3055556  -0.4166667   0.0000000), wk =   0.0061728
        k(  228) = (  -0.3055556  -0.3611111   0.0000000), wk =   0.0061728
        k(  229) = (  -0.3055556  -0.3055556   0.0000000), wk =   0.0061728
        k(  230) = (  -0.3055556  -0.2500000   0.0000000), wk =   0.0061728
        k(  231) = (  -0.3055556  -0.1944444   0.0000000), wk =   0.0061728
        k(  232) = (  -0.3055556  -0.1388889   0.0000000), wk =   0.0061728
        k(  233) = (  -0.3055556  -0.0833333   0.0000000), wk =   0.0061728
        k(  234) = (  -0.3055556  -0.0277778   0.0000000), wk =   0.0061728
        k(  235) = (  -0.2500000   0.0277778   0.0000000), wk =   0.0061728
        k(  236) = (  -0.2500000   0.0833333   0.0000000), wk =   0.0061728
        k(  237) = (  -0.2500000   0.1388889   0.0000000), wk =   0.0061728
        k(  238) = (  -0.2500000   0.1944444   0.0000000), wk =   0.0061728
        k(  239) = (  -0.2500000   0.2500000   0.0000000), wk =   0.0061728
        k(  240) = (  -0.2500000   0.3055556   0.0000000), wk =   0.0061728
        k(  241) = (  -0.2500000   0.3611111   0.0000000), wk =   0.0061728
        k(  242) = (  -0.2500000   0.4166667   0.0000000), wk =   0.0061728
        k(  243) = (  -0.2500000   0.4722222   0.0000000), wk =   0.0061728
        k(  244) = (  -0.2500000  -0.4722222   0.0000000), wk =   0.0061728
        k(  245) = (  -0.2500000  -0.4166667   0.0000000), wk =   0.0061728
        k(  246) = (  -0.2500000  -0.3611111   0.0000000), wk =   0.0061728
        k(  247) = (  -0.2500000  -0.3055556   0.0000000), wk =   0.0061728
        k(  248) = (  -0.2500000  -0.2500000   0.0000000), wk =   0.0061728
        k(  249) = (  -0.2500000  -0.1944444   0.0000000), wk =   0.0061728
        k(  250) = (  -0.2500000  -0.1388889   0.0000000), wk =   0.0061728
        k(  251) = (  -0.2500000  -0.0833333   0.0000000), wk =   0.0061728
        k(  252) = (  -0.2500000  -0.0277778   0.0000000), wk =   0.0061728
        k(  253) = (  -0.1944444   0.0277778   0.0000000), wk =   0.0061728
        k(  254) = (  -0.1944444   0.0833333   0.0000000), wk =   0.0061728
        k(  255) = (  -0.1944444   0.1388889   0.0000000), wk =   0.0061728
        k(  256) = (  -0.1944444   0.1944444   0.0000000), wk =   0.0061728
        k(  257) = (  -0.1944444   0.2500000   0.0000000), wk =   0.0061728
        k(  258) = (  -0.1944444   0.3055556   0.0000000), wk =   0.0061728
        k(  259) = (  -0.1944444   0.3611111   0.0000000), wk =   0.0061728
        k(  260) = (  -0.1944444   0.4166667   0.0000000), wk =   0.0061728
        k(  261) = (  -0.1944444   0.4722222   0.0000000), wk =   0.0061728
        k(  262) = (  -0.1944444  -0.4722222   0.0000000), wk =   0.0061728
        k(  263) = (  -0.1944444  -0.4166667   0.0000000), wk =   0.0061728
        k(  264) = (  -0.1944444  -0.3611111   0.0000000), wk =   0.0061728
        k(  265) = (  -0.1944444  -0.3055556   0.0000000), wk =   0.0061728
        k(  266) = (  -0.1944444  -0.2500000   0.0000000), wk =   0.0061728
        k(  267) = (  -0.1944444  -0.1944444   0.0000000), wk =   0.0061728
        k(  268) = (  -0.1944444  -0.1388889   0.0000000), wk =   0.0061728
        k(  269) = (  -0.1944444  -0.0833333   0.0000000), wk =   0.0061728
        k(  270) = (  -0.1944444  -0.0277778   0.0000000), wk =   0.0061728
        k(  271) = (  -0.1388889   0.0277778   0.0000000), wk =   0.0061728
        k(  272) = (  -0.1388889   0.0833333   0.0000000), wk =   0.0061728
        k(  273) = (  -0.1388889   0.1388889   0.0000000), wk =   0.0061728
        k(  274) = (  -0.1388889   0.1944444   0.0000000), wk =   0.0061728
        k(  275) = (  -0.1388889   0.2500000   0.0000000), wk =   0.0061728
        k(  276) = (  -0.1388889   0.3055556   0.0000000), wk =   0.0061728
        k(  277) = (  -0.1388889   0.3611111   0.0000000), wk =   0.0061728
        k(  278) = (  -0.1388889   0.4166667   0.0000000), wk =   0.0061728
        k(  279) = (  -0.1388889   0.4722222   0.0000000), wk =   0.0061728
        k(  280) = (  -0.1388889  -0.4722222   0.0000000), wk =   0.0061728
        k(  281) = (  -0.1388889  -0.4166667   0.0000000), wk =   0.0061728
        k(  282) = (  -0.1388889  -0.3611111   0.0000000), wk =   0.0061728
        k(  283) = (  -0.1388889  -0.3055556   0.0000000), wk =   0.0061728
        k(  284) = (  -0.1388889  -0.2500000   0.0000000), wk =   0.0061728
        k(  285) = (  -0.1388889  -0.1944444   0.0000000), wk =   0.0061728
        k(  286) = (  -0.1388889  -0.1388889   0.0000000), wk =   0.0061728
        k(  287) = (  -0.1388889  -0.0833333   0.0000000), wk =   0.0061728
        k(  288) = (  -0.1388889  -0.0277778   0.0000000), wk =   0.0061728
        k(  289) = (  -0.0833333   0.0277778   0.0000000), wk =   0.0061728
        k(  290) = (  -0.0833333   0.0833333   0.0000000), wk =   0.0061728
        k(  291) = (  -0.0833333   0.1388889   0.0000000), wk =   0.0061728
        k(  292) = (  -0.0833333   0.1944444   0.0000000), wk =   0.0061728
        k(  293) = (  -0.0833333   0.2500000   0.0000000), wk =   0.0061728
        k(  294) = (  -0.0833333   0.3055556   0.0000000), wk =   0.0061728
        k(  295) = (  -0.0833333   0.3611111   0.0000000), wk =   0.0061728
        k(  296) = (  -0.0833333   0.4166667   0.0000000), wk =   0.0061728
        k(  297) = (  -0.0833333   0.4722222   0.0000000), wk =   0.0061728
        k(  298) = (  -0.0833333  -0.4722222   0.0000000), wk =   0.0061728
        k(  299) = (  -0.0833333  -0.4166667   0.0000000), wk =   0.0061728
        k(  300) = (  -0.0833333  -0.3611111   0.0000000), wk =   0.0061728
        k(  301) = (  -0.0833333  -0.3055556   0.0000000), wk =   0.0061728
        k(  302) = (  -0.0833333  -0.2500000   0.0000000), wk =   0.0061728
        k(  303) = (  -0.0833333  -0.1944444   0.0000000), wk =   0.0061728
        k(  304) = (  -0.0833333  -0.1388889   0.0000000), wk =   0.0061728
        k(  305) = (  -0.0833333  -0.0833333   0.0000000), wk =   0.0061728
        k(  306) = (  -0.0833333  -0.0277778   0.0000000), wk =   0.0061728
        k(  307) = (  -0.0277778   0.0277778   0.0000000), wk =   0.0061728
        k(  308) = (  -0.0277778   0.0833333   0.0000000), wk =   0.0061728
        k(  309) = (  -0.0277778   0.1388889   0.0000000), wk =   0.0061728
        k(  310) = (  -0.0277778   0.1944444   0.0000000), wk =   0.0061728
        k(  311) = (  -0.0277778   0.2500000   0.0000000), wk =   0.0061728
        k(  312) = (  -0.0277778   0.3055556   0.0000000), wk =   0.0061728
        k(  313) = (  -0.0277778   0.3611111   0.0000000), wk =   0.0061728
        k(  314) = (  -0.0277778   0.4166667   0.0000000), wk =   0.0061728
        k(  315) = (  -0.0277778   0.4722222   0.0000000), wk =   0.0061728
        k(  316) = (  -0.0277778  -0.4722222   0.0000000), wk =   0.0061728
        k(  317) = (  -0.0277778  -0.4166667   0.0000000), wk =   0.0061728
        k(  318) = (  -0.0277778  -0.3611111   0.0000000), wk =   0.0061728
        k(  319) = (  -0.0277778  -0.3055556   0.0000000), wk =   0.0061728
        k(  320) = (  -0.0277778  -0.2500000   0.0000000), wk =   0.0061728
        k(  321) = (  -0.0277778  -0.1944444   0.0000000), wk =   0.0061728
        k(  322) = (  -0.0277778  -0.1388889   0.0000000), wk =   0.0061728
        k(  323) = (  -0.0277778  -0.0833333   0.0000000), wk =   0.0061728
        k(  324) = (  -0.0277778  -0.0277778   0.0000000), wk =   0.0061728

     Dense  grid:    95357 G-vectors     FFT dimensions: (  36,  36, 180)

     Dynamical RAM for                 wfc:       0.23 MB

     Dynamical RAM for     wfc (w. buffer):       0.23 MB

     Dynamical RAM for           str. fact:       0.09 MB

     Dynamical RAM for           local pot:       0.00 MB

     Dynamical RAM for          nlocal pot:       0.15 MB

     Dynamical RAM for                qrad:       3.05 MB

     Dynamical RAM for          rho,v,vnew:       0.31 MB

     Dynamical RAM for           G-vectors:       0.19 MB

     Dynamical RAM for          h,s,v(r/c):       0.29 MB

     Dynamical RAM for          <psi|beta>:       0.02 MB

     Dynamical RAM for                 psi:       0.45 MB

     Dynamical RAM for                hpsi:       0.45 MB

     Dynamical RAM for      wfcinit/wfcrot:       0.49 MB

     Estimated static dynamical RAM per process >       4.45 MB

     Estimated max dynamical RAM per process >       5.67 MB

     Estimated total dynamical RAM >     725.95 MB

     The potential is recalculated from file :
     ./AlN.save/charge-density

     Starting wfcs are    8 randomized atomic wfcs +   32 random wfcs

     Band Structure Calculation
     Davidson diagonalization with overlap

     Computing kpt #:     1  of    81 on this pool
     total cpu time spent up to now is        1.8 secs

     Computing kpt #:     2  of    81 on this pool
     total cpu time spent up to now is        2.6 secs

     Computing kpt #:     3  of    81 on this pool
     total cpu time spent up to now is        3.3 secs

     Computing kpt #:     4  of    81 on this pool
     total cpu time spent up to now is        4.0 secs

     Computing kpt #:     5  of    81 on this pool
     total cpu time spent up to now is        4.8 secs

     Computing kpt #:     6  of    81 on this pool
     total cpu time spent up to now is        5.5 secs

     Computing kpt #:     7  of    81 on this pool
     total cpu time spent up to now is        6.2 secs

     Computing kpt #:     8  of    81 on this pool
     total cpu time spent up to now is        6.9 secs

     Computing kpt #:     9  of    81 on this pool
     total cpu time spent up to now is        7.7 secs

     Computing kpt #:    10  of    81 on this pool
     total cpu time spent up to now is        8.5 secs

     Computing kpt #:    11  of    81 on this pool
     total cpu time spent up to now is        9.2 secs

     Computing kpt #:    12  of    81 on this pool
     total cpu time spent up to now is       10.0 secs

     Computing kpt #:    13  of    81 on this pool
     total cpu time spent up to now is       10.7 secs

     Computing kpt #:    14  of    81 on this pool
     total cpu time spent up to now is       11.4 secs

     Computing kpt #:    15  of    81 on this pool
     total cpu time spent up to now is       12.2 secs

     Computing kpt #:    16  of    81 on this pool
     total cpu time spent up to now is       12.9 secs

     Computing kpt #:    17  of    81 on this pool
     total cpu time spent up to now is       13.8 secs

     Computing kpt #:    18  of    81 on this pool
     total cpu time spent up to now is       14.7 secs

     Computing kpt #:    19  of    81 on this pool
     total cpu time spent up to now is       15.4 secs

     Computing kpt #:    20  of    81 on this pool
     total cpu time spent up to now is       16.2 secs

     Computing kpt #:    21  of    81 on this pool
     total cpu time spent up to now is       16.9 secs

     Computing kpt #:    22  of    81 on this pool
     total cpu time spent up to now is       17.7 secs

     Computing kpt #:    23  of    81 on this pool
     total cpu time spent up to now is       18.4 secs

     Computing kpt #:    24  of    81 on this pool
     total cpu time spent up to now is       19.0 secs

     Computing kpt #:    25  of    81 on this pool
     total cpu time spent up to now is       19.9 secs

     Computing kpt #:    26  of    81 on this pool
     total cpu time spent up to now is       20.5 secs

     Computing kpt #:    27  of    81 on this pool
     total cpu time spent up to now is       21.2 secs

     Computing kpt #:    28  of    81 on this pool
     total cpu time spent up to now is       22.1 secs

     Computing kpt #:    29  of    81 on this pool
     total cpu time spent up to now is       22.8 secs

     Computing kpt #:    30  of    81 on this pool
     total cpu time spent up to now is       23.7 secs

     Computing kpt #:    31  of    81 on this pool
     total cpu time spent up to now is       24.5 secs

     Computing kpt #:    32  of    81 on this pool
     total cpu time spent up to now is       25.2 secs

     Computing kpt #:    33  of    81 on this pool
     total cpu time spent up to now is       26.0 secs

     Computing kpt #:    34  of    81 on this pool
     total cpu time spent up to now is       26.8 secs

     Computing kpt #:    35  of    81 on this pool
     total cpu time spent up to now is       27.6 secs

     Computing kpt #:    36  of    81 on this pool
     total cpu time spent up to now is       28.5 secs

     Computing kpt #:    37  of    81 on this pool
     total cpu time spent up to now is       29.2 secs

     Computing kpt #:    38  of    81 on this pool
     total cpu time spent up to now is       30.0 secs

     Computing kpt #:    39  of    81 on this pool
     total cpu time spent up to now is       30.7 secs

     Computing kpt #:    40  of    81 on this pool
     total cpu time spent up to now is       31.4 secs

     Computing kpt #:    41  of    81 on this pool
     total cpu time spent up to now is       32.1 secs

     Computing kpt #:    42  of    81 on this pool
     total cpu time spent up to now is       32.8 secs

     Computing kpt #:    43  of    81 on this pool
     total cpu time spent up to now is       33.5 secs

     Computing kpt #:    44  of    81 on this pool
     total cpu time spent up to now is       34.3 secs

     Computing kpt #:    45  of    81 on this pool
     total cpu time spent up to now is       35.0 secs

     Computing kpt #:    46  of    81 on this pool
     total cpu time spent up to now is       35.8 secs

     Computing kpt #:    47  of    81 on this pool
     total cpu time spent up to now is       36.7 secs

     Computing kpt #:    48  of    81 on this pool
     total cpu time spent up to now is       37.6 secs

     Computing kpt #:    49  of    81 on this pool
     total cpu time spent up to now is       38.3 secs

     Computing kpt #:    50  of    81 on this pool
     total cpu time spent up to now is       39.1 secs

     Computing kpt #:    51  of    81 on this pool
     total cpu time spent up to now is       39.8 secs

     Computing kpt #:    52  of    81 on this pool
     total cpu time spent up to now is       40.6 secs

     Computing kpt #:    53  of    81 on this pool
     total cpu time spent up to now is       41.3 secs

     Computing kpt #:    54  of    81 on this pool
     total cpu time spent up to now is       42.0 secs

     Computing kpt #:    55  of    81 on this pool
     total cpu time spent up to now is       42.7 secs

     Computing kpt #:    56  of    81 on this pool
     total cpu time spent up to now is       43.3 secs

     Computing kpt #:    57  of    81 on this pool
     total cpu time spent up to now is       44.0 secs

     Computing kpt #:    58  of    81 on this pool
     total cpu time spent up to now is       44.7 secs

     Computing kpt #:    59  of    81 on this pool
     total cpu time spent up to now is       45.5 secs

     Computing kpt #:    60  of    81 on this pool
     total cpu time spent up to now is       46.4 secs

     Computing kpt #:    61  of    81 on this pool
     total cpu time spent up to now is       47.2 secs

     Computing kpt #:    62  of    81 on this pool
     total cpu time spent up to now is       47.9 secs

     Computing kpt #:    63  of    81 on this pool
     total cpu time spent up to now is       48.8 secs

     Computing kpt #:    64  of    81 on this pool
     total cpu time spent up to now is       49.6 secs

     Computing kpt #:    65  of    81 on this pool
     total cpu time spent up to now is       50.4 secs

     Computing kpt #:    66  of    81 on this pool
     total cpu time spent up to now is       51.2 secs

     Computing kpt #:    67  of    81 on this pool
     total cpu time spent up to now is       52.1 secs

     Computing kpt #:    68  of    81 on this pool
     total cpu time spent up to now is       52.9 secs

     Computing kpt #:    69  of    81 on this pool
     total cpu time spent up to now is       53.6 secs

     Computing kpt #:    70  of    81 on this pool
     total cpu time spent up to now is       54.3 secs

     Computing kpt #:    71  of    81 on this pool
     total cpu time spent up to now is       55.0 secs

     Computing kpt #:    72  of    81 on this pool
     total cpu time spent up to now is       55.8 secs

     Computing kpt #:    73  of    81 on this pool
     total cpu time spent up to now is       56.6 secs

     Computing kpt #:    74  of    81 on this pool
     total cpu time spent up to now is       57.3 secs

     Computing kpt #:    75  of    81 on this pool
     total cpu time spent up to now is       58.0 secs

     Computing kpt #:    76  of    81 on this pool
     total cpu time spent up to now is       58.7 secs

     Computing kpt #:    77  of    81 on this pool
     total cpu time spent up to now is       59.5 secs

     Computing kpt #:    78  of    81 on this pool
     total cpu time spent up to now is       60.2 secs

     Computing kpt #:    79  of    81 on this pool
     total cpu time spent up to now is       60.9 secs

     Computing kpt #:    80  of    81 on this pool
     total cpu time spent up to now is       61.7 secs

     Computing kpt #:    81  of    81 on this pool
     total cpu time spent up to now is       62.6 secs

     ethr =  1.00E-13,  avg # of iterations = 59.8

     total cpu time spent up to now is       62.6 secs

     End of band structure calculation

          k = 0.0278 0.0481 0.0000 ( 11913 PWs)   bands (ev):

   -16.9968  -5.7896  -4.3747  -4.2600  -0.4786   1.6876   2.2214   3.7754
     3.9429   6.5044   6.8255   8.1326   8.4193  10.4095  10.8142  13.7727
    14.1364  14.3156  16.3687  16.9919  17.5763  18.4351  19.3066  19.4140
    19.7449  20.9616  21.1138  21.3055  21.4695  21.6539  21.8889  22.3659
    22.5020  22.9079  23.1445  23.2705  23.3946  23.6832  23.8747  24.0324

     occupation numbers 
     1.0000   1.0000   1.0000   1.0000   0.0000   0.0000   0.0000   0.0000
     0.0000   0.0000   0.0000   0.0000   0.0000   0.0000   0.0000   0.0000
     0.0000   0.0000   0.0000   0.0000   0.0000   0.0000   0.0000   0.0000
     0.0000   0.0000   0.0000   0.0000   0.0000   0.0000   0.0000   0.0000
     0.0000   0.0000   0.0000   0.0000   0.0000   0.0000   0.0000   0.0000

          k = 0.0278 0.1123 0.0000 ( 11893 PWs)   bands (ev):

   -16.9119  -5.6828  -4.7722  -4.3245  -0.2091   1.7935   2.3996   3.9852
     4.0184   6.6329   6.8331   7.6548   8.6834  10.7088  10.7527  13.2637
    13.8447  14.3706  16.5274  16.9674  17.3531  17.8628  18.8446  19.0175
    19.1830  19.3568  20.2972  20.3212  20.7634  20.9653  21.7927  21.9926
    22.1620  22.3250  22.5598  23.0482  23.4081  23.7440  23.8442  24.2273

     occupation numbers 
     1.0000   1.0000   1.0000   1.0000   0.0000   0.0000   0.0000   0.0000
     0.0000   0.0000   0.0000   0.0000   0.0000   0.0000   0.0000   0.0000
     0.0000   0.0000   0.0000   0.0000   0.0000   0.0000   0.0000   0.0000
     0.0000   0.0000   0.0000   0.0000   0.0000   0.0000   0.0000   0.0000
     0.0000   0.0000   0.0000   0.0000   0.0000   0.0000   0.0000   0.0000

          k = 0.0278 0.1764 0.0000 ( 11897 PWs)   bands (ev):

   -16.7643  -5.4951  -5.3598  -4.4292   0.1883   1.9664   2.7073   4.1411
     4.3272   6.5615   6.8503   7.4183   9.1367  10.5744  11.1072  12.3741
    13.2862  15.1013  15.8464  16.3210  17.2080  17.2146  17.6496  17.8618
    18.3156  19.4231  19.5121  19.7555  19.7643  20.4848  20.4920  21.3726
    21.4050  22.1560  22.2616  22.8885  23.3201  23.9522  23.9672  24.3339

     occupation numbers 
     1.0000   1.0000   1.0000   1.0000   0.0000   0.0000   0.0000   0.0000
     0.0000   0.0000   0.0000   0.0000   0.0000   0.0000   0.0000   0.0000
     0.0000   0.0000   0.0000   0.0000   0.0000   0.0000   0.0000   0.0000
     0.0000   0.0000   0.0000   0.0000   0.0000   0.0000   0.0000   0.0000
     0.0000   0.0000   0.0000   0.0000   0.0000   0.0000   0.0000   0.0000

          k = 0.0278 0.2406 0.0000 ( 11899 PWs)   bands (ev):

   -16.5635  -6.0312  -5.2350  -4.5580   0.6595   2.1647   3.1295   4.2966
     4.7225   6.1380   6.8925   7.7543   9.7425  10.1466  11.5691  11.8933
    12.7731  14.0220  15.2797  15.5150  16.1637  16.4377  17.2332  17.9787
    18.0102  18.3551  18.5421  18.8566  19.1474  19.8906  20.4563  20.7190
    21.4048  21.6249  21.9211  22.3664  22.6721  23.4684  23.4867  24.3708

     occupation numbers 
     1.0000   1.0000   1.0000   1.0000   0.0000   0.0000   0.0000   0.0000
     0.0000   0.0000   0.0000   0.0000   0.0000   0.0000   0.0000   0.0000
     0.0000   0.0000   0.0000   0.0000   0.0000   0.0000   0.0000   0.0000
     0.0000   0.0000   0.0000   0.0000   0.0000   0.0000   0.0000   0.0000
     0.0000   0.0000   0.0000   0.0000   0.0000   0.0000   0.0000   0.0000

          k = 0.0278 0.3047 0.0000 ( 11902 PWs)   bands (ev):

   -16.3252  -6.7111  -4.9175  -4.6931   1.1764   2.3061   3.6447   4.4973
     4.9444   5.9842   6.9872   8.2730   9.6039  10.4459  11.7589  11.8746
    12.4249  12.7350  13.7276  13.9036  15.9939  16.3109  16.7377  16.9638
    17.3484  18.1009  18.2252  18.3149  19.0764  19.7625  20.0625  20.3658
    20.8586  20.9114  21.3493  21.4681  22.7719  22.9490  23.7251  24.1205

     occupation numbers 
     1.0000   1.0000   1.0000   1.0000   0.0000   0.0000   0.0000   0.0000
     0.0000   0.0000   0.0000   0.0000   0.0000   0.0000   0.0000   0.0000
     0.0000   0.0000   0.0000   0.0000   0.0000   0.0000   0.0000   0.0000
     0.0000   0.0000   0.0000   0.0000   0.0000   0.0000   0.0000   0.0000
     0.0000   0.0000   0.0000   0.0000   0.0000   0.0000   0.0000   0.0000

          k = 0.0278 0.3689 0.0000 ( 11917 PWs)   bands (ev):

   -16.0722  -7.3410  -4.8183  -4.5674   1.7051   2.2879   4.1664   4.8079
     4.9252   6.3538   7.1383   8.7711   9.2454  10.9200  11.2467  11.5349
    12.0244  12.1863  12.7773  13.1158  14.8146  15.2186  16.2630  16.6139
    17.5377  17.8769  17.9033  18.4088  19.0219  19.2982  19.4740  19.6806
    20.0508  20.3854  21.1931  21.3660  22.6142  22.6837  23.4614  24.0817

     occupation numbers 
     1.0000   1.0000   1.0000   1.0000   0.0000   0.0000   0.0000   0.0000
     0.0000   0.0000   0.0000   0.0000   0.0000   0.0000   0.0000   0.0000
     0.0000   0.0000   0.0000   0.0000   0.0000   0.0000   0.0000   0.0000
     0.0000   0.0000   0.0000   0.0000   0.0000   0.0000   0.0000   0.0000
     0.0000   0.0000   0.0000   0.0000   0.0000   0.0000   0.0000   0.0000

          k = 0.0278 0.4330 0.0000 ( 11931 PWs)   bands (ev):

   -15.8364  -7.8673  -4.9204  -4.2250   2.0974   2.1748   4.4086   5.2709
     5.3185   6.8614   7.2928   8.9073   9.2050  10.0904  10.7181  11.0657
    11.3989  11.8802  12.9956  13.2699  13.6553  14.4295  16.0441  16.3865
    17.3037  17.5963  17.6354  18.2728  18.4579  19.0260  19.1478  19.3998
    19.9077  20.1666  21.0937  21.2357  22.1269  22.5960  22.9796  23.6874

     occupation numbers 
     1.0000   1.0000   1.0000   1.0000   0.0000   0.0000   0.0000   0.0000
     0.0000   0.0000   0.0000   0.0000   0.0000   0.0000   0.0000   0.0000
     0.0000   0.0000   0.0000   0.0000   0.0000   0.0000   0.0000   0.0000
     0.0000   0.0000   0.0000   0.0000   0.0000   0.0000   0.0000   0.0000
     0.0000   0.0000   0.0000   0.0000   0.0000   0.0000   0.0000   0.0000

          k = 0.0278 0.4972 0.0000 ( 11908 PWs)   bands (ev):

   -15.6566  -8.2375  -4.9899  -3.9502   1.8564   2.4835   4.5804   5.8044
     6.0429   7.1559   7.4330   8.5193   9.1639   9.3861  10.0208  10.7201
    11.1650  12.2851  12.3144  12.7335  13.8631  14.6991  15.9710  15.9883
    16.9519  17.0368  17.4343  17.6365  18.1293  18.9494  19.1105  19.7885
    20.0849  20.3022  20.9603  21.0872  21.5818  22.2977  22.3928  23.1826

     occupation numbers 
     1.0000   1.0000   1.0000   1.0000   0.0000   0.0000   0.0000   0.0000
     0.0000   0.0000   0.0000   0.0000   0.0000   0.0000   0.0000   0.0000
     0.0000   0.0000   0.0000   0.0000   0.0000   0.0000   0.0000   0.0000
     0.0000   0.0000   0.0000   0.0000   0.0000   0.0000   0.0000   0.0000
     0.0000   0.0000   0.0000   0.0000   0.0000   0.0000   0.0000   0.0000

          k = 0.0278 0.5613 0.0000 ( 11928 PWs)   bands (ev):

   -15.5708  -8.4063  -5.0207  -3.8135   1.7177   2.5993   4.7721   6.1515
     6.5364   7.3230   7.6206   7.9487   8.6100   9.0916  10.3937  10.7066
    10.8891  11.6207  12.2972  12.5835  14.4638  15.0431  15.4096  16.0317
    16.5344  16.7750  17.1937  17.6177  18.0481  18.8658  19.0827  19.8803
    20.2832  20.4920  21.1169  21.2617  21.3284  21.7302  22.1135  22.4956

     occupation numbers 
     1.0000   1.0000   1.0000   1.0000   0.0000   0.0000   0.0000   0.0000
     0.0000   0.0000   0.0000   0.0000   0.0000   0.0000   0.0000   0.0000
     0.0000   0.0000   0.0000   0.0000   0.0000   0.0000   0.0000   0.0000
     0.0000   0.0000   0.0000   0.0000   0.0000   0.0000   0.0000   0.0000
     0.0000   0.0000   0.0000   0.0000   0.0000   0.0000   0.0000   0.0000

          k = 0.0278-0.5292 0.0000 ( 11924 PWs)   bands (ev):

   -15.6001  -8.3493  -5.0104  -3.8605   1.7666   2.5627   4.6930   6.0243
     6.3685   7.2019   7.5264   8.2510   8.8628   9.1549  10.1562  10.7139
    11.0471  11.8659  12.3642  12.5740  14.1890  14.9107  15.6846  15.9889
    16.7200  16.8560  17.2693  17.6140  18.0731  18.8950  19.0931  19.8464
    20.2080  20.4860  20.9579  21.1720  21.3709  22.0146  22.2032  22.7988

     occupation numbers 
     1.0000   1.0000   1.0000   1.0000   0.0000   0.0000   0.0000   0.0000
     0.0000   0.0000   0.0000   0.0000   0.0000   0.0000   0.0000   0.0000
     0.0000   0.0000   0.0000   0.0000   0.0000   0.0000   0.0000   0.0000
     0.0000   0.0000   0.0000   0.0000   0.0000   0.0000   0.0000   0.0000
     0.0000   0.0000   0.0000   0.0000   0.0000   0.0000   0.0000   0.0000

          k = 0.0278-0.4651 0.0000 ( 11921 PWs)   bands (ev):

   -15.7369  -8.0750  -4.9597  -4.0747   1.9730   2.3544   4.4806   5.5402
     5.6700   7.0553   7.3600   8.7396   9.2567   9.7450  10.2334  10.7900
    11.2728  12.1316  12.7593  13.0314  13.5928  14.4896  15.9896  16.2227
    17.1453  17.3132  17.5677  17.8536  18.2393  19.0171  19.1290  19.6205
    19.9684  20.1480  21.0703  21.0938  21.8419  22.4934  22.6697  23.5011

     occupation numbers 
     1.0000   1.0000   1.0000   1.0000   0.0000   0.0000   0.0000   0.0000
     0.0000   0.0000   0.0000   0.0000   0.0000   0.0000   0.0000   0.0000
     0.0000   0.0000   0.0000   0.0000   0.0000   0.0000   0.0000   0.0000
     0.0000   0.0000   0.0000   0.0000   0.0000   0.0000   0.0000   0.0000
     0.0000   0.0000   0.0000   0.0000   0.0000   0.0000   0.0000   0.0000

          k = 0.0278-0.4009 0.0000 ( 11917 PWs)   bands (ev):

   -15.9498  -7.6204  -4.8729  -4.3920   1.9537   2.2088   4.3293   5.0220
     5.0470   6.6130   7.2192   8.9186   9.1853  10.4691  11.2413  11.4676
    11.5961  11.6775  12.8661  13.2578  14.1820  14.7023  16.1349  16.5091
    17.4418  17.7335  17.7867  18.6213  18.8007  18.9274  19.2026  19.4392
    19.9278  20.2627  21.1381  21.3351  22.4041  22.6470  23.2370  23.8397

     occupation numbers 
     1.0000   1.0000   1.0000   1.0000   0.0000   0.0000   0.0000   0.0000
     0.0000   0.0000   0.0000   0.0000   0.0000   0.0000   0.0000   0.0000
     0.0000   0.0000   0.0000   0.0000   0.0000   0.0000   0.0000   0.0000
     0.0000   0.0000   0.0000   0.0000   0.0000   0.0000   0.0000   0.0000
     0.0000   0.0000   0.0000   0.0000   0.0000   0.0000   0.0000   0.0000

          k = 0.0278-0.3368 0.0000 ( 11902 PWs)   bands (ev):

   -16.1988  -7.0357  -4.7578  -4.7444   1.4425   2.3214   3.9183   4.6341
     4.9285   6.1252   7.0579   8.5384   9.3890  10.8031  11.5453  11.6764
    12.3292  12.5562  13.0637  13.2572  15.4538  15.8193  16.4357  16.7333
    17.5113  18.0006  18.0614  18.2378  19.0680  19.5858  19.8333  20.1050
    20.3761  20.5242  21.2582  21.3645  22.7281  22.7688  23.7663  24.1897

     occupation numbers 
     1.0000   1.0000   1.0000   1.0000   0.0000   0.0000   0.0000   0.0000
     0.0000   0.0000   0.0000   0.0000   0.0000   0.0000   0.0000   0.0000
     0.0000   0.0000   0.0000   0.0000   0.0000   0.0000   0.0000   0.0000
     0.0000   0.0000   0.0000   0.0000   0.0000   0.0000   0.0000   0.0000
     0.0000   0.0000   0.0000   0.0000   0.0000   0.0000   0.0000   0.0000

          k = 0.0278-0.2726 0.0000 ( 11886 PWs)   bands (ev):

   -16.4478  -6.3740  -5.0821  -4.6258   0.9139   2.2494   3.3777   4.3883
     4.8782   5.9918   6.9318   8.0048   9.8679  10.0866  11.7893  11.8104
    12.5678  13.2953  14.4915  14.6881  16.2916  16.3963  17.0831  17.4460
    17.4859  18.1947  18.3380  18.5649  19.0835  19.8367  20.2610  20.4919
    21.2897  21.3272  21.5983  21.8175  22.7234  23.1840  23.4254  24.4365

     occupation numbers 
     1.0000   1.0000   1.0000   1.0000   0.0000   0.0000   0.0000   0.0000
     0.0000   0.0000   0.0000   0.0000   0.0000   0.0000   0.0000   0.0000
     0.0000   0.0000   0.0000   0.0000   0.0000   0.0000   0.0000   0.0000
     0.0000   0.0000   0.0000   0.0000   0.0000   0.0000   0.0000   0.0000
     0.0000   0.0000   0.0000   0.0000   0.0000   0.0000   0.0000   0.0000

          k = 0.0278-0.2085 0.0000 ( 11901 PWs)   bands (ev):

   -16.6697  -5.6903  -5.3734  -4.4917   0.4167   2.0664   2.9051   4.2151
     4.5267   6.3539   6.8667   7.5444   9.4235  10.3941  11.3333  12.0703
    13.0178  14.7692  15.7840  15.9824  16.4156  16.6515  17.4290  17.9946
    18.1962  18.9624  19.0841  19.1984  19.3296  20.0790  20.5737  21.0224
    21.3245  21.9430  22.0284  22.8479  22.9195  23.7481  23.7733  24.4252

     occupation numbers 
     1.0000   1.0000   1.0000   1.0000   0.0000   0.0000   0.0000   0.0000
     0.0000   0.0000   0.0000   0.0000   0.0000   0.0000   0.0000   0.0000
     0.0000   0.0000   0.0000   0.0000   0.0000   0.0000   0.0000   0.0000
     0.0000   0.0000   0.0000   0.0000   0.0000   0.0000   0.0000   0.0000
     0.0000   0.0000   0.0000   0.0000   0.0000   0.0000   0.0000   0.0000

          k = 0.0278-0.1443 0.0000 ( 11893 PWs)   bands (ev):

   -16.8454  -5.5987  -5.0497  -4.3728  -0.0220   1.8734   2.5382   4.0749
     4.1431   6.6610   6.8400   7.4548   8.8883  10.6866  10.8982  12.7887
    13.5661  14.7623  16.4547  16.5244  17.4746  17.5038  18.2289  18.3041
    18.6122  19.4731  19.8941  20.0437  20.2894  20.7360  21.1197  21.7079
    21.7562  22.1626  22.5265  22.8838  23.3839  23.8605  23.9732  24.2995

     occupation numbers 
     1.0000   1.0000   1.0000   1.0000   0.0000   0.0000   0.0000   0.0000
     0.0000   0.0000   0.0000   0.0000   0.0000   0.0000   0.0000   0.0000
     0.0000   0.0000   0.0000   0.0000   0.0000   0.0000   0.0000   0.0000
     0.0000   0.0000   0.0000   0.0000   0.0000   0.0000   0.0000   0.0000
     0.0000   0.0000   0.0000   0.0000   0.0000   0.0000   0.0000   0.0000

          k = 0.0278-0.0802 0.0000 ( 11891 PWs)   bands (ev):

   -16.9626  -5.7467  -4.5418  -4.2864  -0.3648   1.7307   2.2934   3.8610
     3.9738   6.5637   6.8285   7.9088   8.5260  10.5424  10.7917  13.7372
    14.0272  14.1038  16.4936  17.0208  17.3705  18.5849  18.7519  19.2773
    19.6458  20.2825  20.6249  20.7241  20.9643  21.2542  21.9498  22.2147
    22.5662  22.6645  22.8752  23.3739  23.5689  23.6222  23.6706  24.0180

     occupation numbers 
     1.0000   1.0000   1.0000   1.0000   0.0000   0.0000   0.0000   0.0000
     0.0000   0.0000   0.0000   0.0000   0.0000   0.0000   0.0000   0.0000
     0.0000   0.0000   0.0000   0.0000   0.0000   0.0000   0.0000   0.0000
     0.0000   0.0000   0.0000   0.0000   0.0000   0.0000   0.0000   0.0000
     0.0000   0.0000   0.0000   0.0000   0.0000   0.0000   0.0000   0.0000

          k = 0.0278-0.0160 0.0000 ( 11919 PWs)   bands (ev):

   -17.0140  -5.8111  -4.2860  -4.2467  -0.5393   1.6656   2.1850   3.7318
     3.9271   6.4720   6.8240   8.2654   8.3655  10.3316  10.8247  13.6369
    14.3739  14.4399  16.2655  16.9688  17.8366  18.2553  19.0010  19.8076
    20.0817  21.2428  21.4796  21.6509  21.8014  22.1676  22.2299  22.4027
    22.5721  22.6192  23.0590  23.0697  23.5901  23.6258  23.7469  23.7540

     occupation numbers 
     1.0000   1.0000   1.0000   1.0000   0.0000   0.0000   0.0000   0.0000
     0.0000   0.0000   0.0000   0.0000   0.0000   0.0000   0.0000   0.0000
     0.0000   0.0000   0.0000   0.0000   0.0000   0.0000   0.0000   0.0000
     0.0000   0.0000   0.0000   0.0000   0.0000   0.0000   0.0000   0.0000
     0.0000   0.0000   0.0000   0.0000   0.0000   0.0000   0.0000   0.0000

          k = 0.0833 0.0802 0.0000 ( 11893 PWs)   bands (ev):

   -16.9119  -5.6828  -4.7722  -4.3245  -0.2091   1.7935   2.3996   3.9852
     4.0184   6.6329   6.8331   7.6548   8.6834  10.7088  10.7527  13.2637
    13.8447  14.3706  16.5274  16.9674  17.3531  17.8628  18.8446  19.0175
    19.1830  19.3568  20.2972  20.3212  20.7634  20.9653  21.7927  21.9926
    22.1620  22.3250  22.5598  23.0482  23.4081  23.7440  23.8442  24.2273

     occupation numbers 
     1.0000   1.0000   1.0000   1.0000   0.0000   0.0000   0.0000   0.0000
     0.0000   0.0000   0.0000   0.0000   0.0000   0.0000   0.0000   0.0000
     0.0000   0.0000   0.0000   0.0000   0.0000   0.0000   0.0000   0.0000
     0.0000   0.0000   0.0000   0.0000   0.0000   0.0000   0.0000   0.0000
     0.0000   0.0000   0.0000   0.0000   0.0000   0.0000   0.0000   0.0000

          k = 0.0833 0.1443 0.0000 ( 11891 PWs)   bands (ev):

   -16.7964  -5.5363  -5.2235  -4.4288   0.1103   1.9304   2.6413   4.1159
     4.2620   6.6475   6.8490   7.3621   9.0425  10.6541  11.0296  12.2997
    13.5630  15.0093  16.3842  16.8801  17.0481  17.0795  17.9010  18.1197
    18.4316  18.5941  18.6591  19.9317  20.6669  20.7707  20.9051  21.5963
    22.0189  22.3949  22.6975  23.1202  23.4252  23.6346  23.6379  24.0616

     occupation numbers 
     1.0000   1.0000   1.0000   1.0000   0.0000   0.0000   0.0000   0.0000
     0.0000   0.0000   0.0000   0.0000   0.0000   0.0000   0.0000   0.0000
     0.0000   0.0000   0.0000   0.0000   0.0000   0.0000   0.0000   0.0000
     0.0000   0.0000   0.0000   0.0000   0.0000   0.0000   0.0000   0.0000
     0.0000   0.0000   0.0000   0.0000   0.0000   0.0000   0.0000   0.0000

          k = 0.0833 0.2085 0.0000 ( 11884 PWs)   bands (ev):

   -16.6235  -5.8015  -5.3134  -4.5804   0.5367   2.1130   3.0074   4.2546
     4.6540   6.2845   6.8918   7.5478   9.5546  10.3531  11.4487  11.4853
    13.3059  14.8511  15.6872  16.1987  16.3290  16.6891  16.8838  17.3393
    17.6272  18.1791  18.4347  19.1100  19.3269  20.1894  20.2431  21.3528
    21.4853  22.6321  22.7901  23.0892  23.1188  23.3831  24.3815  24.4002

     occupation numbers 
     1.0000   1.0000   1.0000   1.0000   0.0000   0.0000   0.0000   0.0000
     0.0000   0.0000   0.0000   0.0000   0.0000   0.0000   0.0000   0.0000
     0.0000   0.0000   0.0000   0.0000   0.0000   0.0000   0.0000   0.0000
     0.0000   0.0000   0.0000   0.0000   0.0000   0.0000   0.0000   0.0000
     0.0000   0.0000   0.0000   0.0000   0.0000   0.0000   0.0000   0.0000

          k = 0.0833 0.2726 0.0000 ( 11892 PWs)   bands (ev):

   -16.4054  -6.4295  -5.0257  -4.7531   1.0342   2.2810   3.4839   4.4363
     5.0441   5.9173   6.9854   8.0166   9.6788  10.1470  11.2475  11.8858
    13.0635  13.4143  14.6761  14.7788  15.3998  16.3372  16.8613  17.1123
    17.1336  17.5964  17.6401  18.6272  19.0248  19.6850  19.9708  21.0605
    21.2015  21.6989  22.1006  22.3315  22.9091  23.3375  24.2752  24.4361

     occupation numbers 
     1.0000   1.0000   1.0000   1.0000   0.0000   0.0000   0.0000   0.0000
     0.0000   0.0000   0.0000   0.0000   0.0000   0.0000   0.0000   0.0000
     0.0000   0.0000   0.0000   0.0000   0.0000   0.0000   0.0000   0.0000
     0.0000   0.0000   0.0000   0.0000   0.0000   0.0000   0.0000   0.0000
     0.0000   0.0000   0.0000   0.0000   0.0000   0.0000   0.0000   0.0000

          k = 0.0833 0.3368 0.0000 ( 11918 PWs)   bands (ev):

   -16.1611  -7.0460  -4.9227  -4.6928   1.5753   2.3420   4.0402   4.7026
     5.0749   6.0911   7.1250   8.5729   9.0664  10.6646  11.2370  11.7200
    12.6327  12.6431  13.3815  13.5111  15.0205  15.6395  16.0239  16.1016
    16.5101  17.4101  17.8795  18.7754  19.0283  19.2989  19.9021  20.3687
    20.3868  21.1298  21.6058  21.9881  22.7954  23.1286  23.8712  23.9928

     occupation numbers 
     1.0000   1.0000   1.0000   1.0000   0.0000   0.0000   0.0000   0.0000
     0.0000   0.0000   0.0000   0.0000   0.0000   0.0000   0.0000   0.0000
     0.0000   0.0000   0.0000   0.0000   0.0000   0.0000   0.0000   0.0000
     0.0000   0.0000   0.0000   0.0000   0.0000   0.0000   0.0000   0.0000
     0.0000   0.0000   0.0000   0.0000   0.0000   0.0000   0.0000   0.0000

          k = 0.0833 0.4009 0.0000 ( 11914 PWs)   bands (ev):

   -15.9177  -7.5959  -5.0700  -4.3466   2.1151   2.2358   4.4869   5.1054
     5.1244   6.6316   7.2221   8.8571   9.0009  10.4076  10.9438  11.2947
    11.7785  11.8854  13.3060  13.3278  14.4774  14.8111  14.8629  15.6273
    16.1533  17.3047  18.3469  18.7335  18.7558  18.9716  19.0424  19.6423
    20.3588  20.9511  21.4706  21.7823  22.4024  23.2326  23.3784  23.9599

     occupation numbers 
     1.0000   1.0000   1.0000   1.0000   0.0000   0.0000   0.0000   0.0000
     0.0000   0.0000   0.0000   0.0000   0.0000   0.0000   0.0000   0.0000
     0.0000   0.0000   0.0000   0.0000   0.0000   0.0000   0.0000   0.0000
     0.0000   0.0000   0.0000   0.0000   0.0000   0.0000   0.0000   0.0000
     0.0000   0.0000   0.0000   0.0000   0.0000   0.0000   0.0000   0.0000

          k = 0.0833 0.4651 0.0000 ( 11929 PWs)   bands (ev):

   -15.7101  -8.0260  -5.1806  -4.0361   2.0197   2.5634   4.6005   5.6071
     5.7424   7.1190   7.2573   8.8115   9.1098   9.8300   9.9640  10.7695
    11.4362  11.8333  13.0117  13.2010  14.0489  14.4002  14.8624  15.3550
    15.9711  16.8847  17.6048  18.0190  18.6093  18.9651  19.1207  19.9230
    20.4490  20.7214  21.2862  21.4591  22.1373  23.0804  23.1218  23.4795

     occupation numbers 
     1.0000   1.0000   1.0000   1.0000   0.0000   0.0000   0.0000   0.0000
     0.0000   0.0000   0.0000   0.0000   0.0000   0.0000   0.0000   0.0000
     0.0000   0.0000   0.0000   0.0000   0.0000   0.0000   0.0000   0.0000
     0.0000   0.0000   0.0000   0.0000   0.0000   0.0000   0.0000   0.0000
     0.0000   0.0000   0.0000   0.0000   0.0000   0.0000   0.0000   0.0000

          k = 0.0833 0.5292 0.0000 ( 11927 PWs)   bands (ev):

   -15.5770  -8.2863  -5.2450  -3.8274   1.8303   2.8161   4.7605   6.0111
     6.4550   7.3002   7.4764   8.3234   8.8092   9.2167   9.8066  10.7707
    11.0328  11.9537  12.4143  12.6306  14.5319  14.6379  15.0893  15.2311
    15.9215  16.0878  16.8110  17.7185  18.4831  18.9229  19.2859  20.2791
    20.6325  20.8636  21.1349  21.5059  21.6534  22.5906  22.7647  23.0278

     occupation numbers 
     1.0000   1.0000   1.0000   1.0000   0.0000   0.0000   0.0000   0.0000
     0.0000   0.0000   0.0000   0.0000   0.0000   0.0000   0.0000   0.0000
     0.0000   0.0000   0.0000   0.0000   0.0000   0.0000   0.0000   0.0000
     0.0000   0.0000   0.0000   0.0000   0.0000   0.0000   0.0000   0.0000
     0.0000   0.0000   0.0000   0.0000   0.0000   0.0000   0.0000   0.0000

          k = 0.0833 0.5934 0.0000 ( 11923 PWs)   bands (ev):

   -15.5486  -8.3404  -5.2581  -3.7816   1.7854   2.8627   4.8252   6.0980
     6.6391   7.4095   7.6695   8.0376   8.4580   9.1414  10.0626  10.7569
    10.7902  12.0888  12.2936  12.3995  14.6812  14.7579  15.2452  15.2602
    15.7385  15.9113  16.5742  17.6748  18.4555  18.9138  19.3207  20.2729
    20.7094  21.0124  21.2256  21.4920  21.5503  22.3503  22.5397  22.9940

     occupation numbers 
     1.0000   1.0000   1.0000   1.0000   0.0000   0.0000   0.0000   0.0000
     0.0000   0.0000   0.0000   0.0000   0.0000   0.0000   0.0000   0.0000
     0.0000   0.0000   0.0000   0.0000   0.0000   0.0000   0.0000   0.0000
     0.0000   0.0000   0.0000   0.0000   0.0000   0.0000   0.0000   0.0000
     0.0000   0.0000   0.0000   0.0000   0.0000   0.0000   0.0000   0.0000

          k = 0.0833-0.4972 0.0000 ( 11925 PWs)   bands (ev):

   -15.6319  -8.1802  -5.2190  -3.9147   1.9129   2.7176   4.6720   5.8395
     6.1198   7.2433   7.3269   8.5814   9.1766   9.4679   9.6240  10.7576
    11.2667  11.8728  12.6660  12.9138  14.2555  14.5255  14.9398  15.2712
    15.9365  16.5043  17.1780  17.8206  18.5352  18.9417  19.2163  20.1929
    20.5305  20.6987  21.1470  21.4730  21.9009  22.9159  22.9842  23.1356

     occupation numbers 
     1.0000   1.0000   1.0000   1.0000   0.0000   0.0000   0.0000   0.0000
     0.0000   0.0000   0.0000   0.0000   0.0000   0.0000   0.0000   0.0000
     0.0000   0.0000   0.0000   0.0000   0.0000   0.0000   0.0000   0.0000
     0.0000   0.0000   0.0000   0.0000   0.0000   0.0000   0.0000   0.0000
     0.0000   0.0000   0.0000   0.0000   0.0000   0.0000   0.0000   0.0000

          k = 0.0833-0.4330 0.0000 ( 11928 PWs)   bands (ev):

   -15.8070  -7.8293  -5.1306  -4.1830   2.1336   2.3582   4.5547   5.3520
     5.3882   6.9016   7.2361   8.9400   8.9951  10.1241  10.4874  10.9825
    11.5747  11.8000  13.2838  13.3608  14.0764  14.4623  14.8320  15.4739
    16.0408  17.1548  18.0399  18.3549  18.7013  18.9620  19.0267  19.6691
    20.3972  20.8285  21.4578  21.5203  22.3081  23.1703  23.2331  23.8633

     occupation numbers 
     1.0000   1.0000   1.0000   1.0000   0.0000   0.0000   0.0000   0.0000
     0.0000   0.0000   0.0000   0.0000   0.0000   0.0000   0.0000   0.0000
     0.0000   0.0000   0.0000   0.0000   0.0000   0.0000   0.0000   0.0000
     0.0000   0.0000   0.0000   0.0000   0.0000   0.0000   0.0000   0.0000
     0.0000   0.0000   0.0000   0.0000   0.0000   0.0000   0.0000   0.0000

          k = 0.0833-0.3689 0.0000 ( 11929 PWs)   bands (ev):

   -16.0373  -7.3326  -5.0001  -4.5187   1.8497   2.3092   4.3075   4.8861
     5.0355   6.3490   7.1863   8.8286   8.8987  10.6830  11.1770  11.4237
    12.1743  12.3041  13.1977  13.3420  14.9022  15.0529  15.3873  15.8222
    16.3095  17.3764  18.2170  18.7964  18.8746  19.1365  19.4695  19.9023
    20.3207  21.0607  21.5121  21.9415  22.5347  23.2249  23.5920  23.9301

     occupation numbers 
     1.0000   1.0000   1.0000   1.0000   0.0000   0.0000   0.0000   0.0000
     0.0000   0.0000   0.0000   0.0000   0.0000   0.0000   0.0000   0.0000
     0.0000   0.0000   0.0000   0.0000   0.0000   0.0000   0.0000   0.0000
     0.0000   0.0000   0.0000   0.0000   0.0000   0.0000   0.0000   0.0000
     0.0000   0.0000   0.0000   0.0000   0.0000   0.0000   0.0000   0.0000

          k = 0.0833-0.3047 0.0000 ( 11909 PWs)   bands (ev):

   -16.2850  -6.7427  -4.8633  -4.8396   1.3013   2.3307   3.7562   4.5547
     5.1155   5.9189   7.0528   8.2925   9.3378  10.4355  11.2407  11.9713
    12.8633  12.9140  13.9863  14.0130  15.1890  16.0550  16.5926  16.6234
    16.8145  17.4519  17.5321  18.7293  19.0943  19.4647  19.9693  20.8026
    20.8529  21.2410  21.7834  22.1007  23.0000  23.0875  24.1285  24.1859

     occupation numbers 
     1.0000   1.0000   1.0000   1.0000   0.0000   0.0000   0.0000   0.0000
     0.0000   0.0000   0.0000   0.0000   0.0000   0.0000   0.0000   0.0000
     0.0000   0.0000   0.0000   0.0000   0.0000   0.0000   0.0000   0.0000
     0.0000   0.0000   0.0000   0.0000   0.0000   0.0000   0.0000   0.0000
     0.0000   0.0000   0.0000   0.0000   0.0000   0.0000   0.0000   0.0000

          k = 0.0833-0.2406 0.0000 ( 11888 PWs)   bands (ev):

   -16.5190  -6.1133  -5.1767  -4.6657   0.7782   2.2041   3.2329   4.3386
     4.8657   6.0682   6.9312   7.7629   9.8466  10.0418  11.3069  11.6767
    13.1848  14.1209  15.4437  15.4978  15.7080  16.5967  16.6836  17.3037
    17.3245  18.1080  18.2322  18.5802  18.9337  19.9498  20.0500  21.2337
    21.3674  22.2343  22.5096  22.6898  22.9517  23.4526  24.3323  24.4372

     occupation numbers 
     1.0000   1.0000   1.0000   1.0000   0.0000   0.0000   0.0000   0.0000
     0.0000   0.0000   0.0000   0.0000   0.0000   0.0000   0.0000   0.0000
     0.0000   0.0000   0.0000   0.0000   0.0000   0.0000   0.0000   0.0000
     0.0000   0.0000   0.0000   0.0000   0.0000   0.0000   0.0000   0.0000
     0.0000   0.0000   0.0000   0.0000   0.0000   0.0000   0.0000   0.0000

          k = 0.0833-0.1764 0.0000 ( 11880 PWs)   bands (ev):

   -16.7165  -5.5019  -5.4338  -4.5004   0.3129   2.0188   2.8096   4.1806
     4.4474   6.5017   6.8655   7.3970   9.2833  10.5502  11.2296  11.8311
    13.4318  15.2583  15.8383  16.6100  16.7248  17.1678  17.4315  17.4537
    17.9282  18.2613  18.3976  19.7506  20.0812  20.3498  20.5502  21.3392
    21.8023  22.6151  22.9474  23.0973  23.1698  23.7548  24.0945  24.1500

     occupation numbers 
     1.0000   1.0000   1.0000   1.0000   0.0000   0.0000   0.0000   0.0000
     0.0000   0.0000   0.0000   0.0000   0.0000   0.0000   0.0000   0.0000
     0.0000   0.0000   0.0000   0.0000   0.0000   0.0000   0.0000   0.0000
     0.0000   0.0000   0.0000   0.0000   0.0000   0.0000   0.0000   0.0000
     0.0000   0.0000   0.0000   0.0000   0.0000   0.0000   0.0000   0.0000

          k = 0.0833-0.1123 0.0000 ( 11889 PWs)   bands (ev):

   -16.8619  -5.6196  -4.9766  -4.3691  -0.0659   1.8539   2.5042   4.0613
     4.1062   6.6725   6.8390   7.4742   8.8401  10.7135  10.8543  12.8052
    13.6999  14.6723  16.6935  16.7794  17.2200  17.5340  18.1894  18.6302
    18.9242  19.1689  19.4616  19.8222  20.8781  20.9261  21.5136  21.9407
    22.1181  22.4821  22.6761  22.7448  23.0035  23.6755  23.8773  24.0771

     occupation numbers 
     1.0000   1.0000   1.0000   1.0000   0.0000   0.0000   0.0000   0.0000
     0.0000   0.0000   0.0000   0.0000   0.0000   0.0000   0.0000   0.0000
     0.0000   0.0000   0.0000   0.0000   0.0000   0.0000   0.0000   0.0000
     0.0000   0.0000   0.0000   0.0000   0.0000   0.0000   0.0000   0.0000
     0.0000   0.0000   0.0000   0.0000   0.0000   0.0000   0.0000   0.0000

          k = 0.0833-0.0481 0.0000 ( 11897 PWs)   bands (ev):

   -16.9456  -5.7253  -4.6228  -4.2973  -0.3113   1.7519   2.3290   3.9028
     3.9888   6.5890   6.8299   7.8163   8.5779  10.6011  10.7785  13.5877
    13.9946  14.1466  16.4659  17.0166  17.4061  18.2244  18.8882  19.4170
    19.4229  19.7400  20.4542  20.5681  21.3986  21.4356  21.4794  21.6261
    22.3006  22.5244  22.7095  23.3352  23.3710  24.1372  24.1382  24.2045

     occupation numbers 
     1.0000   1.0000   1.0000   1.0000   0.0000   0.0000   0.0000   0.0000
     0.0000   0.0000   0.0000   0.0000   0.0000   0.0000   0.0000   0.0000
     0.0000   0.0000   0.0000   0.0000   0.0000   0.0000   0.0000   0.0000
     0.0000   0.0000   0.0000   0.0000   0.0000   0.0000   0.0000   0.0000
     0.0000   0.0000   0.0000   0.0000   0.0000   0.0000   0.0000   0.0000

          k = 0.0833 0.0160 0.0000 ( 11891 PWs)   bands (ev):

   -16.9626  -5.7467  -4.5418  -4.2864  -0.3648   1.7307   2.2934   3.8610
     3.9738   6.5637   6.8285   7.9088   8.5260  10.5424  10.7917  13.7372
    14.0272  14.1038  16.4936  17.0208  17.3705  18.5849  18.7519  19.2773
    19.6458  20.2825  20.6249  20.7241  20.9643  21.2542  21.9498  22.2147
    22.5662  22.6645  22.8752  23.3739  23.5689  23.6222  23.6706  24.0180

     occupation numbers 
     1.0000   1.0000   1.0000   1.0000   0.0000   0.0000   0.0000   0.0000
     0.0000   0.0000   0.0000   0.0000   0.0000   0.0000   0.0000   0.0000
     0.0000   0.0000   0.0000   0.0000   0.0000   0.0000   0.0000   0.0000
     0.0000   0.0000   0.0000   0.0000   0.0000   0.0000   0.0000   0.0000
     0.0000   0.0000   0.0000   0.0000   0.0000   0.0000   0.0000   0.0000

          k = 0.1389 0.1123 0.0000 ( 11897 PWs)   bands (ev):

   -16.7643  -5.4951  -5.3598  -4.4292   0.1883   1.9664   2.7073   4.1411
     4.3272   6.5615   6.8503   7.4183   9.1367  10.5744  11.1072  12.3741
    13.2862  15.1013  15.8464  16.3210  17.2080  17.2146  17.6496  17.8618
    18.3156  19.4231  19.5121  19.7555  19.7643  20.4848  20.4920  21.3726
    21.4050  22.1560  22.2616  22.8885  23.3201  23.9522  23.9672  24.3339

     occupation numbers 
     1.0000   1.0000   1.0000   1.0000   0.0000   0.0000   0.0000   0.0000
     0.0000   0.0000   0.0000   0.0000   0.0000   0.0000   0.0000   0.0000
     0.0000   0.0000   0.0000   0.0000   0.0000   0.0000   0.0000   0.0000
     0.0000   0.0000   0.0000   0.0000   0.0000   0.0000   0.0000   0.0000
     0.0000   0.0000   0.0000   0.0000   0.0000   0.0000   0.0000   0.0000

          k = 0.1389 0.1764 0.0000 ( 11884 PWs)   bands (ev):

   -16.6235  -5.8015  -5.3134  -4.5804   0.5367   2.1130   3.0074   4.2546
     4.6540   6.2845   6.8918   7.5478   9.5546  10.3531  11.4487  11.4853
    13.3059  14.8511  15.6872  16.1987  16.3290  16.6891  16.8838  17.3393
    17.6272  18.1791  18.4347  19.1100  19.3269  20.1894  20.2431  21.3528
    21.4853  22.6321  22.7901  23.0892  23.1188  23.3831  24.3815  24.4002

     occupation numbers 
     1.0000   1.0000   1.0000   1.0000   0.0000   0.0000   0.0000   0.0000
     0.0000   0.0000   0.0000   0.0000   0.0000   0.0000   0.0000   0.0000
     0.0000   0.0000   0.0000   0.0000   0.0000   0.0000   0.0000   0.0000
     0.0000   0.0000   0.0000   0.0000   0.0000   0.0000   0.0000   0.0000
     0.0000   0.0000   0.0000   0.0000   0.0000   0.0000   0.0000   0.0000

          k = 0.1389 0.2406 0.0000 ( 11891 PWs)   bands (ev):

   -16.4328  -6.3088  -5.0625  -4.8038   0.9903   2.2694   3.4309   4.4194
     5.1025   5.9053   6.9964   7.8925   9.7048  10.0429  11.0433  11.8607
    13.3227  14.2197  14.4650  15.5831  15.6760  15.7637  15.8820  16.9945
    17.5599  17.7267  18.2164  18.3621  18.7561  19.1018  19.3905  21.4198
    22.0011  22.3547  22.8291  22.8519  23.5469  23.6960  24.2722  24.3526

     occupation numbers 
     1.0000   1.0000   1.0000   1.0000   0.0000   0.0000   0.0000   0.0000
     0.0000   0.0000   0.0000   0.0000   0.0000   0.0000   0.0000   0.0000
     0.0000   0.0000   0.0000   0.0000   0.0000   0.0000   0.0000   0.0000
     0.0000   0.0000   0.0000   0.0000   0.0000   0.0000   0.0000   0.0000
     0.0000   0.0000   0.0000   0.0000   0.0000   0.0000   0.0000   0.0000

          k = 0.1389 0.3047 0.0000 ( 11926 PWs)   bands (ev):

   -16.2077  -6.8350  -5.0539  -4.7580   1.5209   2.3657   3.9650   4.6666
     5.4090   5.7860   7.1643   8.3968   8.8625  10.4401  11.0429  12.1460
    13.0651  13.1688  13.9528  14.2265  14.2397  15.1003  15.2881  16.6989
    16.9215  17.4871  17.6759  18.1236  18.1536  19.2354  19.8990  20.8567
    20.9799  21.8899  22.1550  22.6951  23.2209  23.7574  24.0881  24.2415

     occupation numbers 
     1.0000   1.0000   1.0000   1.0000   0.0000   0.0000   0.0000   0.0000
     0.0000   0.0000   0.0000   0.0000   0.0000   0.0000   0.0000   0.0000
     0.0000   0.0000   0.0000   0.0000   0.0000   0.0000   0.0000   0.0000
     0.0000   0.0000   0.0000   0.0000   0.0000   0.0000   0.0000   0.0000
     0.0000   0.0000   0.0000   0.0000   0.0000   0.0000   0.0000   0.0000

          k = 0.1389 0.3689 0.0000 ( 11932 PWs)   bands (ev):

   -15.9707  -7.3361  -5.2894  -4.4251   2.0971   2.3389   4.5604   5.0376
     5.2056   6.3697   7.2235   8.4133   8.9614  10.4260  11.0429  11.6345
    12.3683  12.5232  13.1595  13.7087  13.8385  14.6430  14.9241  15.4579
    15.6027  17.0401  17.5982  18.3539  18.6204  19.5317  19.5548  20.0982
    20.4855  21.4930  21.9787  22.3343  22.9819  23.1335  23.8546  24.1850

     occupation numbers 
     1.0000   1.0000   1.0000   1.0000   0.0000   0.0000   0.0000   0.0000
     0.0000   0.0000   0.0000   0.0000   0.0000   0.0000   0.0000   0.0000
     0.0000   0.0000   0.0000   0.0000   0.0000   0.0000   0.0000   0.0000
     0.0000   0.0000   0.0000   0.0000   0.0000   0.0000   0.0000   0.0000
     0.0000   0.0000   0.0000   0.0000   0.0000   0.0000   0.0000   0.0000

          k = 0.1389 0.4330 0.0000 ( 11934 PWs)   bands (ev):

   -15.7517  -7.7642  -5.4807  -4.1033   2.1949   2.6624   4.8150   5.5036
     5.5179   6.9962   7.0254   8.6507   9.1457  10.1564  10.4734  10.8443
    11.7245  11.7522  13.3502  13.5274  13.6843  14.1544  14.5091  14.7805
    14.9408  16.7152  17.4156  18.0520  18.4029  19.0351  19.3795  20.5060
    20.5190  21.0873  22.0115  22.0671  22.7193  23.0110  23.6882  23.8142

     occupation numbers 
     1.0000   1.0000   1.0000   1.0000   0.0000   0.0000   0.0000   0.0000
     0.0000   0.0000   0.0000   0.0000   0.0000   0.0000   0.0000   0.0000
     0.0000   0.0000   0.0000   0.0000   0.0000   0.0000   0.0000   0.0000
     0.0000   0.0000   0.0000   0.0000   0.0000   0.0000   0.0000   0.0000
     0.0000   0.0000   0.0000   0.0000   0.0000   0.0000   0.0000   0.0000

          k = 0.1389 0.4972 0.0000 ( 11935 PWs)   bands (ev):

   -15.5864  -8.0700  -5.6098  -3.8484   2.0174   3.1062   4.8423   5.8455
     6.2757   7.1098   7.4127   8.6932   9.0498   9.5892   9.6103  10.8182
    11.3299  11.3939  12.9627  13.0514  13.4927  14.0210  14.4591  14.8751
    15.0580  16.4754  17.0842  17.3389  17.4173  19.2110  19.6654  20.7563
    20.9021  21.0007  21.8863  21.9583  22.4432  22.8367  23.0715  23.4994

     occupation numbers 
     1.0000   1.0000   1.0000   1.0000   0.0000   0.0000   0.0000   0.0000
     0.0000   0.0000   0.0000   0.0000   0.0000   0.0000   0.0000   0.0000
     0.0000   0.0000   0.0000   0.0000   0.0000   0.0000   0.0000   0.0000
     0.0000   0.0000   0.0000   0.0000   0.0000   0.0000   0.0000   0.0000
     0.0000   0.0000   0.0000   0.0000   0.0000   0.0000   0.0000   0.0000

          k = 0.1389 0.5613 0.0000 ( 11925 PWs)   bands (ev):

   -15.5080  -8.2103  -5.6667  -3.7230   1.9144   3.3077   4.9299   5.9111
     6.8334   7.5778   7.7118   8.2088   8.3073   9.2384   9.9087  10.7290
    10.9422  11.6090  12.4464  12.6776  13.4546  13.9879  14.5680  15.3372
    15.4770  16.0855  16.5596  16.6271  17.3720  19.3336  19.6048  21.0183
    21.3819  21.3855  21.6980  21.7714  22.2748  22.2833  22.7179  23.0667

     occupation numbers 
     1.0000   1.0000   1.0000   1.0000   0.0000   0.0000   0.0000   0.0000
     0.0000   0.0000   0.0000   0.0000   0.0000   0.0000   0.0000   0.0000
     0.0000   0.0000   0.0000   0.0000   0.0000   0.0000   0.0000   0.0000
     0.0000   0.0000   0.0000   0.0000   0.0000   0.0000   0.0000   0.0000
     0.0000   0.0000   0.0000   0.0000   0.0000   0.0000   0.0000   0.0000

          k = 0.1389 0.6255 0.0000 ( 11933 PWs)   bands (ev):

   -15.5346  -8.1628  -5.6476  -3.7660   1.9508   3.2409   4.8899   5.8989
     6.6268   7.3727   7.4849   8.4651   8.7366   9.3250   9.6934  10.8175
    11.1562  11.4134  12.7046  12.7676  13.4731  14.0003  14.5377  15.0990
    15.2611  16.3235  16.7073  16.9412  17.3727  19.2916  19.6347  20.9486
    21.1381  21.1398  21.8288  21.8930  22.3179  22.5002  22.8291  23.3062

     occupation numbers 
     1.0000   1.0000   1.0000   1.0000   0.0000   0.0000   0.0000   0.0000
     0.0000   0.0000   0.0000   0.0000   0.0000   0.0000   0.0000   0.0000
     0.0000   0.0000   0.0000   0.0000   0.0000   0.0000   0.0000   0.0000
     0.0000   0.0000   0.0000   0.0000   0.0000   0.0000   0.0000   0.0000
     0.0000   0.0000   0.0000   0.0000   0.0000   0.0000   0.0000   0.0000

          k = 0.1389-0.4651 0.0000 ( 11941 PWs)   bands (ev):

   -15.6601  -7.9354  -5.5538  -3.9635   2.1033   2.9085   4.8173   5.7120
     5.8864   6.9960   7.2517   8.8966   8.9282   9.9765   9.9930  10.6853
    11.4912  11.5748  13.2513  13.3912  13.4868  14.0524  14.3899  14.7534
    14.9562  16.5889  17.3787  17.5695  17.8816  19.1079  19.6067  20.5707
    20.6979  20.9943  21.9588  21.9979  22.5770  23.0549  23.4014  23.5423

     occupation numbers 
     1.0000   1.0000   1.0000   1.0000   0.0000   0.0000   0.0000   0.0000
     0.0000   0.0000   0.0000   0.0000   0.0000   0.0000   0.0000   0.0000
     0.0000   0.0000   0.0000   0.0000   0.0000   0.0000   0.0000   0.0000
     0.0000   0.0000   0.0000   0.0000   0.0000   0.0000   0.0000   0.0000
     0.0000   0.0000   0.0000   0.0000   0.0000   0.0000   0.0000   0.0000

          k = 0.1389-0.4009 0.0000 ( 11934 PWs)   bands (ev):

   -15.8568  -7.5624  -5.3919  -4.2597   2.2777   2.3865   4.7709   5.2497
     5.2665   6.6910   7.1310   8.4647   9.1626  10.2473  10.8662  11.2462
    11.9550  12.1040  13.2030  13.6514  13.7975  14.3955  14.7767  15.0041
    15.1031  16.8648  17.4879  18.3501  18.8683  19.1239  19.1615  20.2942
    20.5148  21.2711  21.9945  22.1969  22.8958  22.9545  23.8084  24.0609

     occupation numbers 
     1.0000   1.0000   1.0000   1.0000   0.0000   0.0000   0.0000   0.0000
     0.0000   0.0000   0.0000   0.0000   0.0000   0.0000   0.0000   0.0000
     0.0000   0.0000   0.0000   0.0000   0.0000   0.0000   0.0000   0.0000
     0.0000   0.0000   0.0000   0.0000   0.0000   0.0000   0.0000   0.0000
     0.0000   0.0000   0.0000   0.0000   0.0000   0.0000   0.0000   0.0000

          k = 0.1389-0.3368 0.0000 ( 11931 PWs)   bands (ev):

   -16.0890  -7.0916  -5.1756  -4.5930   1.8058   2.3695   4.2636   4.8355
     5.2977   6.0552   7.2304   8.5545   8.6831  10.5085  11.0688  11.9932
    12.7558  12.8500  13.5295  13.8488  13.8805  14.8668  15.0809  16.0557
    16.2384  17.2435  17.7215  18.2541  18.2768  19.5180  19.9655  20.3494
    20.5318  21.7017  22.0168  22.4943  23.0808  23.4367  23.9470  24.2236

     occupation numbers 
     1.0000   1.0000   1.0000   1.0000   0.0000   0.0000   0.0000   0.0000
     0.0000   0.0000   0.0000   0.0000   0.0000   0.0000   0.0000   0.0000
     0.0000   0.0000   0.0000   0.0000   0.0000   0.0000   0.0000   0.0000
     0.0000   0.0000   0.0000   0.0000   0.0000   0.0000   0.0000   0.0000
     0.0000   0.0000   0.0000   0.0000   0.0000   0.0000   0.0000   0.0000

          k = 0.1389-0.2726 0.0000 ( 11904 PWs)   bands (ev):

   -16.3233  -6.5722  -4.9283  -4.9157   1.2477   2.3299   3.6854   4.5297
     5.3379   5.7445   7.0764   8.1290   9.2673  10.2680  11.0200  12.0473
    13.2877  13.6386  14.1252  14.8787  14.9957  15.3567  15.5430  17.2634
    17.3072  17.6732  17.8223  17.9574  18.3606  19.0429  19.6362  21.2461
    21.5577  22.0822  22.4483  22.8812  23.3819  23.8357  24.1869  24.2830

     occupation numbers 
     1.0000   1.0000   1.0000   1.0000   0.0000   0.0000   0.0000   0.0000
     0.0000   0.0000   0.0000   0.0000   0.0000   0.0000   0.0000   0.0000
     0.0000   0.0000   0.0000   0.0000   0.0000   0.0000   0.0000   0.0000
     0.0000   0.0000   0.0000   0.0000   0.0000   0.0000   0.0000   0.0000
     0.0000   0.0000   0.0000   0.0000   0.0000   0.0000   0.0000   0.0000

          k = 0.1389-0.2085 0.0000 ( 11882 PWs)   bands (ev):

   -16.5335  -6.0500  -5.1958  -4.6858   0.7522   2.1938   3.2043   4.3294
     4.8659   6.0975   6.9346   7.6962   9.7978  10.0956  11.1760  11.6523
    13.3234  14.5504  15.1305  15.9178  16.1159  16.3906  16.5169  16.8831
    17.3633  17.8910  18.4576  18.7884  19.1270  19.5443  19.5687  21.4233
    21.9084  22.6731  22.8730  23.1179  23.3873  23.5054  24.2147  24.2558

     occupation numbers 
     1.0000   1.0000   1.0000   1.0000   0.0000   0.0000   0.0000   0.0000
     0.0000   0.0000   0.0000   0.0000   0.0000   0.0000   0.0000   0.0000
     0.0000   0.0000   0.0000   0.0000   0.0000   0.0000   0.0000   0.0000
     0.0000   0.0000   0.0000   0.0000   0.0000   0.0000   0.0000   0.0000
     0.0000   0.0000   0.0000   0.0000   0.0000   0.0000   0.0000   0.0000

          k = 0.1389-0.1443 0.0000 ( 11883 PWs)   bands (ev):

   -16.7008  -5.5690  -5.4136  -4.4934   0.3474   2.0351   2.8414   4.1921
     4.4734   6.4451   6.8652   7.4543   9.3296  10.4900  11.2641  11.9274
    13.2837  15.1009  15.7276  16.3472  16.7728  16.9590  17.1474  17.6851
    18.1439  18.7126  18.7232  19.4397  19.5929  20.5459  20.5672  21.4246
    21.5192  22.1533  22.1570  22.9524  23.1783  23.8374  24.3115  24.3748

     occupation numbers 
     1.0000   1.0000   1.0000   1.0000   0.0000   0.0000   0.0000   0.0000
     0.0000   0.0000   0.0000   0.0000   0.0000   0.0000   0.0000   0.0000
     0.0000   0.0000   0.0000   0.0000   0.0000   0.0000   0.0000   0.0000
     0.0000   0.0000   0.0000   0.0000   0.0000   0.0000   0.0000   0.0000
     0.0000   0.0000   0.0000   0.0000   0.0000   0.0000   0.0000   0.0000

          k = 0.1389-0.0802 0.0000 ( 11909 PWs)   bands (ev):

   -16.8127  -5.5570  -5.1827  -4.3900   0.0638   1.9115   2.6060   4.1018
     4.2168   6.6293   6.8430   7.4276   8.9874  10.6384  10.9837  12.6818
    13.3795  14.9243  16.1717  16.3238  17.4542  17.4948  17.9551  17.9575
    18.6910  19.5788  19.6852  20.0475  20.4524  20.5870  20.8569  20.8639
    21.1259  22.2516  22.6984  23.3921  23.3977  23.4293  23.8360  24.4273

     occupation numbers 
     1.0000   1.0000   1.0000   1.0000   0.0000   0.0000   0.0000   0.0000
     0.0000   0.0000   0.0000   0.0000   0.0000   0.0000   0.0000   0.0000
     0.0000   0.0000   0.0000   0.0000   0.0000   0.0000   0.0000   0.0000
     0.0000   0.0000   0.0000   0.0000   0.0000   0.0000   0.0000   0.0000
     0.0000   0.0000   0.0000   0.0000   0.0000   0.0000   0.0000   0.0000

          k = 0.1389-0.0160 0.0000 ( 11889 PWs)   bands (ev):

   -16.8619  -5.6196  -4.9766  -4.3691  -0.0659   1.8539   2.5042   4.0613
     4.1062   6.6725   6.8390   7.4742   8.8401  10.7135  10.8543  12.8052
    13.6999  14.6723  16.6935  16.7794  17.2200  17.5340  18.1894  18.6302
    18.9242  19.1689  19.4616  19.8222  20.8781  20.9261  21.5136  21.9407
    22.1181  22.4821  22.6761  22.7448  23.0035  23.6755  23.8773  24.0771

     occupation numbers 
     1.0000   1.0000   1.0000   1.0000   0.0000   0.0000   0.0000   0.0000
     0.0000   0.0000   0.0000   0.0000   0.0000   0.0000   0.0000   0.0000
     0.0000   0.0000   0.0000   0.0000   0.0000   0.0000   0.0000   0.0000
     0.0000   0.0000   0.0000   0.0000   0.0000   0.0000   0.0000   0.0000
     0.0000   0.0000   0.0000   0.0000   0.0000   0.0000   0.0000   0.0000

          k = 0.1389 0.0481 0.0000 ( 11893 PWs)   bands (ev):

   -16.8454  -5.5987  -5.0497  -4.3728  -0.0220   1.8734   2.5382   4.0749
     4.1431   6.6610   6.8400   7.4548   8.8883  10.6866  10.8982  12.7887
    13.5661  14.7623  16.4547  16.5244  17.4746  17.5038  18.2289  18.3041
    18.6122  19.4731  19.8941  20.0437  20.2894  20.7360  21.1197  21.7079
    21.7562  22.1626  22.5265  22.8838  23.3839  23.8605  23.9732  24.2995

     occupation numbers 
     1.0000   1.0000   1.0000   1.0000   0.0000   0.0000   0.0000   0.0000
     0.0000   0.0000   0.0000   0.0000   0.0000   0.0000   0.0000   0.0000
     0.0000   0.0000   0.0000   0.0000   0.0000   0.0000   0.0000   0.0000
     0.0000   0.0000   0.0000   0.0000   0.0000   0.0000   0.0000   0.0000
     0.0000   0.0000   0.0000   0.0000   0.0000   0.0000   0.0000   0.0000

          k = 0.1944 0.1443 0.0000 ( 11899 PWs)   bands (ev):

   -16.5635  -6.0312  -5.2350  -4.5580   0.6595   2.1647   3.1295   4.2966
     4.7225   6.1380   6.8925   7.7543   9.7425  10.1466  11.5691  11.8933
    12.7731  14.0220  15.2797  15.5150  16.1637  16.4377  17.2332  17.9787
    18.0102  18.3551  18.5421  18.8566  19.1474  19.8906  20.4563  20.7190
    21.4048  21.6249  21.9211  22.3664  22.6721  23.4684  23.4867  24.3708

     occupation numbers 
     1.0000   1.0000   1.0000   1.0000   0.0000   0.0000   0.0000   0.0000
     0.0000   0.0000   0.0000   0.0000   0.0000   0.0000   0.0000   0.0000
     0.0000   0.0000   0.0000   0.0000   0.0000   0.0000   0.0000   0.0000
     0.0000   0.0000   0.0000   0.0000   0.0000   0.0000   0.0000   0.0000
     0.0000   0.0000   0.0000   0.0000   0.0000   0.0000   0.0000   0.0000

          k = 0.1944 0.2085 0.0000 ( 11892 PWs)   bands (ev):

   -16.4054  -6.4295  -5.0257  -4.7531   1.0342   2.2810   3.4839   4.4363
     5.0441   5.9173   6.9854   8.0166   9.6788  10.1470  11.2475  11.8858
    13.0635  13.4143  14.6761  14.7788  15.3998  16.3372  16.8613  17.1123
    17.1336  17.5964  17.6401  18.6272  19.0248  19.6850  19.9708  21.0605
    21.2015  21.6989  22.1006  22.3315  22.9091  23.3375  24.2752  24.4361

     occupation numbers 
     1.0000   1.0000   1.0000   1.0000   0.0000   0.0000   0.0000   0.0000
     0.0000   0.0000   0.0000   0.0000   0.0000   0.0000   0.0000   0.0000
     0.0000   0.0000   0.0000   0.0000   0.0000   0.0000   0.0000   0.0000
     0.0000   0.0000   0.0000   0.0000   0.0000   0.0000   0.0000   0.0000
     0.0000   0.0000   0.0000   0.0000   0.0000   0.0000   0.0000   0.0000

          k = 0.1944 0.2726 0.0000 ( 11926 PWs)   bands (ev):

   -16.2077  -6.8350  -5.0539  -4.7580   1.5209   2.3657   3.9650   4.6666
     5.4090   5.7860   7.1643   8.3968   8.8625  10.4401  11.0429  12.1460
    13.0651  13.1688  13.9528  14.2265  14.2397  15.1003  15.2881  16.6989
    16.9215  17.4871  17.6759  18.1236  18.1536  19.2354  19.8990  20.8567
    20.9799  21.8899  22.1550  22.6951  23.2209  23.7574  24.0881  24.2415

     occupation numbers 
     1.0000   1.0000   1.0000   1.0000   0.0000   0.0000   0.0000   0.0000
     0.0000   0.0000   0.0000   0.0000   0.0000   0.0000   0.0000   0.0000
     0.0000   0.0000   0.0000   0.0000   0.0000   0.0000   0.0000   0.0000
     0.0000   0.0000   0.0000   0.0000   0.0000   0.0000   0.0000   0.0000
     0.0000   0.0000   0.0000   0.0000   0.0000   0.0000   0.0000   0.0000

          k = 0.1944 0.3368 0.0000 ( 11909 PWs)   bands (ev):

   -15.9891  -7.2187  -5.3995  -4.4523   2.0917   2.3762   4.5606   5.0240
     5.3635   6.2041   7.2553   8.2026   8.9083  10.3674  11.0544  12.2974
    12.4283  13.0007  13.1511  13.4226  13.7230  14.0775  14.3700  16.2102
    16.4229  16.4736  16.6191  18.5610  18.7368  19.1608  20.2754  20.4036
    20.5147  21.1026  21.1132  22.9400  23.6143  23.8245  24.5449  25.0486

     occupation numbers 
     1.0000   1.0000   1.0000   1.0000   0.0000   0.0000   0.0000   0.0000
     0.0000   0.0000   0.0000   0.0000   0.0000   0.0000   0.0000   0.0000
     0.0000   0.0000   0.0000   0.0000   0.0000   0.0000   0.0000   0.0000
     0.0000   0.0000   0.0000   0.0000   0.0000   0.0000   0.0000   0.0000
     0.0000   0.0000   0.0000   0.0000   0.0000   0.0000   0.0000   0.0000

          k = 0.1944 0.4009 0.0000 ( 11948 PWs)   bands (ev):

   -15.7745  -7.5571  -5.7246  -4.1400   2.3088   2.7080   5.0992   5.3726
     5.4840   6.8394   6.8515   8.3728   9.3644  10.0471  10.9030  11.2933
    12.1485  12.1523  12.5943  13.0285  13.2909  14.0178  14.1179  15.2417
    15.3742  16.0711  16.3233  18.8126  19.1157  19.4340  19.4699  19.7961
    20.3501  21.0796  21.1184  22.2768  23.6289  24.0648  24.5800  25.0308

     occupation numbers 
     1.0000   1.0000   1.0000   1.0000   0.0000   0.0000   0.0000   0.0000
     0.0000   0.0000   0.0000   0.0000   0.0000   0.0000   0.0000   0.0000
     0.0000   0.0000   0.0000   0.0000   0.0000   0.0000   0.0000   0.0000
     0.0000   0.0000   0.0000   0.0000   0.0000   0.0000   0.0000   0.0000
     0.0000   0.0000   0.0000   0.0000   0.0000   0.0000   0.0000   0.0000

          k = 0.1944 0.4651 0.0000 ( 11951 PWs)   bands (ev):

   -15.5946  -7.8232  -5.9776  -3.8664   2.2006   3.2978   5.0611   5.7328
     6.1115   6.7310   7.4586   8.8810   9.0079  10.1777  10.1821  10.5547
    11.3015  11.6159  12.3449  12.8531  13.3600  13.5910  13.7998  14.8919
    15.0079  15.8725  16.2270  17.9616  18.1875  19.2473  19.7975  20.2303
    20.3504  21.1154  21.7485  22.1183  23.3440  23.8829  24.0955  24.6584

     occupation numbers 
     1.0000   1.0000   1.0000   1.0000   0.0000   0.0000   0.0000   0.0000
     0.0000   0.0000   0.0000   0.0000   0.0000   0.0000   0.0000   0.0000
     0.0000   0.0000   0.0000   0.0000   0.0000   0.0000   0.0000   0.0000
     0.0000   0.0000   0.0000   0.0000   0.0000   0.0000   0.0000   0.0000
     0.0000   0.0000   0.0000   0.0000   0.0000   0.0000   0.0000   0.0000

          k = 0.1944 0.5292 0.0000 ( 11942 PWs)   bands (ev):

   -15.4809  -7.9858  -6.1268  -3.6867   2.1095   3.7178   5.0690   5.5790
     6.8755   7.3679   7.7164   8.6680   8.8078   9.4258   9.8309  10.5230
    11.3202  11.3209  12.1963  12.4042  12.8938  13.4012  13.5027  15.2600
    15.3906  15.7750  16.1384  17.0843  17.2070  19.1666  19.9298  20.4035
    20.7773  21.5162  22.0877  22.1541  22.9717  23.1570  23.8254  24.5668

     occupation numbers 
     1.0000   1.0000   1.0000   1.0000   0.0000   0.0000   0.0000   0.0000
     0.0000   0.0000   0.0000   0.0000   0.0000   0.0000   0.0000   0.0000
     0.0000   0.0000   0.0000   0.0000   0.0000   0.0000   0.0000   0.0000
     0.0000   0.0000   0.0000   0.0000   0.0000   0.0000   0.0000   0.0000
     0.0000   0.0000   0.0000   0.0000   0.0000   0.0000   0.0000   0.0000

          k = 0.1944 0.5934 0.0000 ( 11951 PWs)   bands (ev):

   -15.4568  -8.0198  -6.1573  -3.6478   2.0879   3.8103   5.0873   5.5282
     7.0831   7.7499   7.8141   8.4201   8.4407   9.3669   9.9737  10.3426
    11.1921  11.5170  12.2546  12.2730  12.5981  13.3917  13.4490  15.3823
    15.6980  15.7658  16.0794  16.8284  16.8662  19.1493  19.9522  20.4160
    20.9815  21.7070  22.0046  22.1682  22.9348  22.9371  23.7291  24.5700

     occupation numbers 
     1.0000   1.0000   1.0000   1.0000   0.0000   0.0000   0.0000   0.0000
     0.0000   0.0000   0.0000   0.0000   0.0000   0.0000   0.0000   0.0000
     0.0000   0.0000   0.0000   0.0000   0.0000   0.0000   0.0000   0.0000
     0.0000   0.0000   0.0000   0.0000   0.0000   0.0000   0.0000   0.0000
     0.0000   0.0000   0.0000   0.0000   0.0000   0.0000   0.0000   0.0000

          k = 0.1944 0.6575 0.0000 ( 11953 PWs)   bands (ev):

   -15.5277  -7.9193  -6.0665  -3.7614   2.1491   3.5407   5.0544   5.6648
     6.5156   6.9972   7.6410   8.8139   9.0285   9.7417   9.8298  10.7013
    11.1145  11.4701  12.2426  12.6338  13.1919  13.4454  13.6146  15.0748
    15.1083  15.8106  16.1847  17.4878  17.6775  19.1997  19.8806  20.3894
    20.5038  21.2747  22.0184  22.1287  23.1202  23.5089  23.9591  24.5815

     occupation numbers 
     1.0000   1.0000   1.0000   1.0000   0.0000   0.0000   0.0000   0.0000
     0.0000   0.0000   0.0000   0.0000   0.0000   0.0000   0.0000   0.0000
     0.0000   0.0000   0.0000   0.0000   0.0000   0.0000   0.0000   0.0000
     0.0000   0.0000   0.0000   0.0000   0.0000   0.0000   0.0000   0.0000
     0.0000   0.0000   0.0000   0.0000   0.0000   0.0000   0.0000   0.0000

          k = 0.1944-0.4330 0.0000 ( 11952 PWs)   bands (ev):

   -15.6782  -7.7011  -5.8626  -3.9951   2.2564   3.0132   5.0889   5.6771
     5.7136   6.6776   7.1763   8.6209   9.2574  10.1614  10.6051  10.7916
    11.6950  11.8109  12.4677  12.9680  13.3593  13.8625  13.9607  14.9880
    15.0241  15.9592  16.2692  18.4448  18.7031  19.3180  19.6392  19.9796
    20.3061  21.0988  21.3913  22.1495  23.5284  24.0625  24.3363  24.8240

     occupation numbers 
     1.0000   1.0000   1.0000   1.0000   0.0000   0.0000   0.0000   0.0000
     0.0000   0.0000   0.0000   0.0000   0.0000   0.0000   0.0000   0.0000
     0.0000   0.0000   0.0000   0.0000   0.0000   0.0000   0.0000   0.0000
     0.0000   0.0000   0.0000   0.0000   0.0000   0.0000   0.0000   0.0000
     0.0000   0.0000   0.0000   0.0000   0.0000   0.0000   0.0000   0.0000

          k = 0.1944-0.3689 0.0000 ( 11932 PWs)   bands (ev):

   -15.8795  -7.3951  -5.5683  -4.2945   2.3507   2.3974   4.8841   5.2486
     5.2969   6.5200   7.0834   8.1987   9.1823  10.1902  11.0296  11.8178
    12.4113  12.6315  12.8589  13.1161  13.3380  14.0284  14.2644  15.6809
    15.9190  16.2120  16.4111  18.9131  18.9192  19.3241  19.8321  20.0211
    20.4695  20.9462  21.0710  22.5521  23.6547  23.9973  24.6947  25.2155

     occupation numbers 
     1.0000   1.0000   1.0000   1.0000   0.0000   0.0000   0.0000   0.0000
     0.0000   0.0000   0.0000   0.0000   0.0000   0.0000   0.0000   0.0000
     0.0000   0.0000   0.0000   0.0000   0.0000   0.0000   0.0000   0.0000
     0.0000   0.0000   0.0000   0.0000   0.0000   0.0000   0.0000   0.0000
     0.0000   0.0000   0.0000   0.0000   0.0000   0.0000   0.0000   0.0000

          k = 0.1944-0.3047 0.0000 ( 11927 PWs)   bands (ev):

   -16.0996  -7.0311  -5.2254  -4.6082   1.7978   2.3816   4.2499   4.8284
     5.4317   5.9316   7.2539   8.4602   8.6388  10.4599  11.0437  12.2427
    12.8502  13.1206  13.4179  13.9322  14.0324  14.5317  14.5796  16.4994
    16.6971  16.9425  17.2469  18.2115  18.3903  19.1463  20.2406  20.6529
    20.6871  21.4461  21.5917  23.1437  23.4903  23.6238  24.3879  24.6897

     occupation numbers 
     1.0000   1.0000   1.0000   1.0000   0.0000   0.0000   0.0000   0.0000
     0.0000   0.0000   0.0000   0.0000   0.0000   0.0000   0.0000   0.0000
     0.0000   0.0000   0.0000   0.0000   0.0000   0.0000   0.0000   0.0000
     0.0000   0.0000   0.0000   0.0000   0.0000   0.0000   0.0000   0.0000
     0.0000   0.0000   0.0000   0.0000   0.0000   0.0000   0.0000   0.0000

          k = 0.1944-0.2406 0.0000 ( 11900 PWs)   bands (ev):

   -16.3105  -6.6335  -4.8981  -4.8936   1.2651   2.3306   3.7091   4.5374
     5.2405   5.8207   7.0661   8.1893   9.2949  10.3238  11.0946  12.0316
    13.1513  13.2094  14.4433  14.4615  14.6708  15.7843  16.1034  16.8800
    17.1420  17.4780  17.6064  18.3128  18.7854  19.4861  19.5591  21.0560
    21.1976  21.8606  22.4499  22.6033  22.9166  23.2369  24.1169  24.2997

     occupation numbers 
     1.0000   1.0000   1.0000   1.0000   0.0000   0.0000   0.0000   0.0000
     0.0000   0.0000   0.0000   0.0000   0.0000   0.0000   0.0000   0.0000
     0.0000   0.0000   0.0000   0.0000   0.0000   0.0000   0.0000   0.0000
     0.0000   0.0000   0.0000   0.0000   0.0000   0.0000   0.0000   0.0000
     0.0000   0.0000   0.0000   0.0000   0.0000   0.0000   0.0000   0.0000

          k = 0.1944-0.1764 0.0000 ( 11882 PWs)   bands (ev):

   -16.4903  -6.2271  -5.1386  -4.6395   0.8313   2.2235   3.2905   4.3576
     4.8681   6.0266   6.9281   7.8744   9.9441   9.9607  11.5317  11.7242
    12.9220  13.6907  14.9576  15.1321  16.0359  16.4604  16.8709  17.6221
    17.7022  17.8810  18.0548  18.7505  18.8510  20.0891  20.5311  20.8588
    21.1582  21.4765  21.8804  22.2010  22.7680  23.5760  24.0289  24.4810

     occupation numbers 
     1.0000   1.0000   1.0000   1.0000   0.0000   0.0000   0.0000   0.0000
     0.0000   0.0000   0.0000   0.0000   0.0000   0.0000   0.0000   0.0000
     0.0000   0.0000   0.0000   0.0000   0.0000   0.0000   0.0000   0.0000
     0.0000   0.0000   0.0000   0.0000   0.0000   0.0000   0.0000   0.0000
     0.0000   0.0000   0.0000   0.0000   0.0000   0.0000   0.0000   0.0000

          k = 0.1944-0.1123 0.0000 ( 11911 PWs)   bands (ev):

   -16.6237  -5.8490  -5.3136  -4.5100   0.5209   2.1108   3.0010   4.2497
     4.6090   6.2483   6.8740   7.6463   9.5638  10.2809  11.4360  12.1309
    12.7646  14.3896  15.6269  15.8525  16.0727  16.4783  17.6460  18.0515
    18.1167  18.6929  18.6929  19.3968  19.5459  19.8606  20.2177  20.4159
    21.3791  22.1558  22.1866  22.4210  22.8652  23.1303  23.4581  24.3067

     occupation numbers 
     1.0000   1.0000   1.0000   1.0000   0.0000   0.0000   0.0000   0.0000
     0.0000   0.0000   0.0000   0.0000   0.0000   0.0000   0.0000   0.0000
     0.0000   0.0000   0.0000   0.0000   0.0000   0.0000   0.0000   0.0000
     0.0000   0.0000   0.0000   0.0000   0.0000   0.0000   0.0000   0.0000
     0.0000   0.0000   0.0000   0.0000   0.0000   0.0000   0.0000   0.0000

          k = 0.1944-0.0481 0.0000 ( 11883 PWs)   bands (ev):

   -16.7008  -5.5690  -5.4136  -4.4934   0.3474   2.0351   2.8414   4.1921
     4.4734   6.4451   6.8652   7.4543   9.3296  10.4900  11.2641  11.9274
    13.2837  15.1009  15.7276  16.3472  16.7728  16.9590  17.1474  17.6851
    18.1439  18.7126  18.7232  19.4397  19.5929  20.5459  20.5672  21.4246
    21.5192  22.1533  22.1570  22.9524  23.1783  23.8374  24.3115  24.3748

     occupation numbers 
     1.0000   1.0000   1.0000   1.0000   0.0000   0.0000   0.0000   0.0000
     0.0000   0.0000   0.0000   0.0000   0.0000   0.0000   0.0000   0.0000
     0.0000   0.0000   0.0000   0.0000   0.0000   0.0000   0.0000   0.0000
     0.0000   0.0000   0.0000   0.0000   0.0000   0.0000   0.0000   0.0000
     0.0000   0.0000   0.0000   0.0000   0.0000   0.0000   0.0000   0.0000

          k = 0.1944 0.0160 0.0000 ( 11880 PWs)   bands (ev):

   -16.7165  -5.5019  -5.4338  -4.5004   0.3129   2.0188   2.8096   4.1806
     4.4474   6.5017   6.8655   7.3970   9.2833  10.5502  11.2296  11.8311
    13.4318  15.2583  15.8383  16.6100  16.7248  17.1678  17.4315  17.4537
    17.9282  18.2613  18.3976  19.7506  20.0812  20.3498  20.5502  21.3392
    21.8023  22.6151  22.9474  23.0973  23.1698  23.7548  24.0945  24.1500

     occupation numbers 
     1.0000   1.0000   1.0000   1.0000   0.0000   0.0000   0.0000   0.0000
     0.0000   0.0000   0.0000   0.0000   0.0000   0.0000   0.0000   0.0000
     0.0000   0.0000   0.0000   0.0000   0.0000   0.0000   0.0000   0.0000
     0.0000   0.0000   0.0000   0.0000   0.0000   0.0000   0.0000   0.0000
     0.0000   0.0000   0.0000   0.0000   0.0000   0.0000   0.0000   0.0000

          k = 0.1944 0.0802 0.0000 ( 11901 PWs)   bands (ev):

   -16.6697  -5.6903  -5.3734  -4.4917   0.4167   2.0664   2.9051   4.2151
     4.5267   6.3539   6.8667   7.5444   9.4235  10.3941  11.3333  12.0703
    13.0178  14.7692  15.7840  15.9824  16.4156  16.6515  17.4290  17.9946
    18.1962  18.9624  19.0841  19.1984  19.3296  20.0790  20.5737  21.0224
    21.3245  21.9430  22.0284  22.8479  22.9195  23.7481  23.7733  24.4252

     occupation numbers 
     1.0000   1.0000   1.0000   1.0000   0.0000   0.0000   0.0000   0.0000
     0.0000   0.0000   0.0000   0.0000   0.0000   0.0000   0.0000   0.0000
     0.0000   0.0000   0.0000   0.0000   0.0000   0.0000   0.0000   0.0000
     0.0000   0.0000   0.0000   0.0000   0.0000   0.0000   0.0000   0.0000
     0.0000   0.0000   0.0000   0.0000   0.0000   0.0000   0.0000   0.0000

          k = 0.2500 0.1764 0.0000 ( 11902 PWs)   bands (ev):

   -16.3252  -6.7111  -4.9175  -4.6931   1.1764   2.3061   3.6447   4.4973
     4.9444   5.9842   6.9872   8.2730   9.6039  10.4459  11.7589  11.8746
    12.4249  12.7350  13.7276  13.9036  15.9939  16.3109  16.7377  16.9638
    17.3484  18.1009  18.2252  18.3149  19.0764  19.7625  20.0625  20.3658
    20.8586  20.9114  21.3493  21.4681  22.7719  22.9490  23.7251  24.1205

     occupation numbers 
     1.0000   1.0000   1.0000   1.0000   0.0000   0.0000   0.0000   0.0000
     0.0000   0.0000   0.0000   0.0000   0.0000   0.0000   0.0000   0.0000
     0.0000   0.0000   0.0000   0.0000   0.0000   0.0000   0.0000   0.0000
     0.0000   0.0000   0.0000   0.0000   0.0000   0.0000   0.0000   0.0000
     0.0000   0.0000   0.0000   0.0000   0.0000   0.0000   0.0000   0.0000

          k = 0.2500 0.2406 0.0000 ( 11918 PWs)   bands (ev):

   -16.1611  -7.0460  -4.9227  -4.6928   1.5753   2.3420   4.0402   4.7026
     5.0749   6.0911   7.1250   8.5729   9.0664  10.6646  11.2370  11.7200
    12.6327  12.6431  13.3815  13.5111  15.0205  15.6395  16.0239  16.1016
    16.5101  17.4101  17.8795  18.7754  19.0283  19.2989  19.9021  20.3687
    20.3868  21.1298  21.6058  21.9881  22.7954  23.1286  23.8712  23.9928

     occupation numbers 
     1.0000   1.0000   1.0000   1.0000   0.0000   0.0000   0.0000   0.0000
     0.0000   0.0000   0.0000   0.0000   0.0000   0.0000   0.0000   0.0000
     0.0000   0.0000   0.0000   0.0000   0.0000   0.0000   0.0000   0.0000
     0.0000   0.0000   0.0000   0.0000   0.0000   0.0000   0.0000   0.0000
     0.0000   0.0000   0.0000   0.0000   0.0000   0.0000   0.0000   0.0000

          k = 0.2500 0.3047 0.0000 ( 11932 PWs)   bands (ev):

   -15.9707  -7.3361  -5.2894  -4.4251   2.0971   2.3389   4.5604   5.0376
     5.2056   6.3697   7.2235   8.4133   8.9614  10.4260  11.0429  11.6345
    12.3683  12.5232  13.1595  13.7087  13.8385  14.6430  14.9241  15.4579
    15.6027  17.0401  17.5982  18.3539  18.6204  19.5317  19.5548  20.0982
    20.4855  21.4930  21.9787  22.3343  22.9819  23.1335  23.8546  24.1850

     occupation numbers 
     1.0000   1.0000   1.0000   1.0000   0.0000   0.0000   0.0000   0.0000
     0.0000   0.0000   0.0000   0.0000   0.0000   0.0000   0.0000   0.0000
     0.0000   0.0000   0.0000   0.0000   0.0000   0.0000   0.0000   0.0000
     0.0000   0.0000   0.0000   0.0000   0.0000   0.0000   0.0000   0.0000
     0.0000   0.0000   0.0000   0.0000   0.0000   0.0000   0.0000   0.0000

          k = 0.2500 0.3689 0.0000 ( 11948 PWs)   bands (ev):

   -15.7745  -7.5571  -5.7246  -4.1400   2.3088   2.7080   5.0992   5.3726
     5.4840   6.8394   6.8515   8.3728   9.3644  10.0471  10.9030  11.2933
    12.1485  12.1523  12.5943  13.0285  13.2909  14.0178  14.1179  15.2417
    15.3742  16.0711  16.3233  18.8126  19.1157  19.4340  19.4699  19.7961
    20.3501  21.0796  21.1184  22.2768  23.6289  24.0648  24.5800  25.0308

     occupation numbers 
     1.0000   1.0000   1.0000   1.0000   0.0000   0.0000   0.0000   0.0000
     0.0000   0.0000   0.0000   0.0000   0.0000   0.0000   0.0000   0.0000
     0.0000   0.0000   0.0000   0.0000   0.0000   0.0000   0.0000   0.0000
     0.0000   0.0000   0.0000   0.0000   0.0000   0.0000   0.0000   0.0000
     0.0000   0.0000   0.0000   0.0000   0.0000   0.0000   0.0000   0.0000

          k = 0.2500 0.4330 0.0000 ( 11965 PWs)   bands (ev):

   -15.5978  -7.6976  -6.1489  -3.8735   2.2793   3.3536   5.2060   5.6958
     6.0368   6.5710   7.4478   8.8040   9.1426  10.2719  10.6693  10.7585
    11.3171  11.5225  11.9518  12.4395  12.7659  14.1269  14.2128  14.4486
    14.8876  15.5895  15.8684  18.7111  18.9948  19.0127  19.1852  20.0876
    20.1544  21.1613  21.1941  22.4187  23.5489  24.4551  25.1504  25.2421

     occupation numbers 
     1.0000   1.0000   1.0000   1.0000   0.0000   0.0000   0.0000   0.0000
     0.0000   0.0000   0.0000   0.0000   0.0000   0.0000   0.0000   0.0000
     0.0000   0.0000   0.0000   0.0000   0.0000   0.0000   0.0000   0.0000
     0.0000   0.0000   0.0000   0.0000   0.0000   0.0000   0.0000   0.0000
     0.0000   0.0000   0.0000   0.0000   0.0000   0.0000   0.0000   0.0000

          k = 0.2500 0.4972 0.0000 ( 11961 PWs)   bands (ev):

   -15.4676  -7.7618  -6.4833  -3.6701   2.2679   3.9276   5.2414   5.3159
     6.8360   7.1681   7.8461   8.8766   9.1525   9.7760  10.1819  10.5123
    11.0398  11.1726  11.4388  12.1573  12.4242  13.5231  13.8134  14.4335
    14.7379  15.6258  15.9866  17.9284  18.0147  18.6950  19.0245  20.3597
    20.8626  21.6277  21.8925  22.7066  23.2181  23.8895  24.6589  24.9056

     occupation numbers 
     1.0000   1.0000   1.0000   1.0000   0.0000   0.0000   0.0000   0.0000
     0.0000   0.0000   0.0000   0.0000   0.0000   0.0000   0.0000   0.0000
     0.0000   0.0000   0.0000   0.0000   0.0000   0.0000   0.0000   0.0000
     0.0000   0.0000   0.0000   0.0000   0.0000   0.0000   0.0000   0.0000
     0.0000   0.0000   0.0000   0.0000   0.0000   0.0000   0.0000   0.0000

          k = 0.2500 0.5613 0.0000 ( 11963 PWs)   bands (ev):

   -15.4069  -7.7767  -6.6489  -3.5730   2.2688   4.2345   5.0754   5.2994
     7.2823   7.9102   8.0932   8.6888   8.7274   9.4614  10.0145  10.0748
    11.0050  11.1979  11.6546  11.8440  12.5032  12.9069  13.2111  14.5963
    14.8156  16.1427  16.1940  17.0669  17.3449  18.6158  18.9702  20.5608
    21.3734  22.0835  22.2519  22.8951  22.9360  23.2242  24.8177  24.9687

     occupation numbers 
     1.0000   1.0000   1.0000   1.0000   0.0000   0.0000   0.0000   0.0000
     0.0000   0.0000   0.0000   0.0000   0.0000   0.0000   0.0000   0.0000
     0.0000   0.0000   0.0000   0.0000   0.0000   0.0000   0.0000   0.0000
     0.0000   0.0000   0.0000   0.0000   0.0000   0.0000   0.0000   0.0000
     0.0000   0.0000   0.0000   0.0000   0.0000   0.0000   0.0000   0.0000

          k = 0.2500 0.6255 0.0000 ( 11965 PWs)   bands (ev):

   -15.4274  -7.7730  -6.5918  -3.6061   2.2679   4.1278   5.1590   5.2726
     7.1565   7.5607   7.9064   8.9081   9.0157   9.4407  10.0644  10.2438
    11.0672  11.0947  11.6567  11.9110  12.3603  13.3066  13.3471  14.5335
    14.8028  15.8829  16.0724  17.4914  17.5661  18.6418  18.9903  20.4814
    21.1614  21.8955  22.1787  22.8159  23.0229  23.5017  24.6821  24.9239

     occupation numbers 
     1.0000   1.0000   1.0000   1.0000   0.0000   0.0000   0.0000   0.0000
     0.0000   0.0000   0.0000   0.0000   0.0000   0.0000   0.0000   0.0000
     0.0000   0.0000   0.0000   0.0000   0.0000   0.0000   0.0000   0.0000
     0.0000   0.0000   0.0000   0.0000   0.0000   0.0000   0.0000   0.0000
     0.0000   0.0000   0.0000   0.0000   0.0000   0.0000   0.0000   0.0000

          k = 0.2500 0.6896 0.0000 ( 11971 PWs)   bands (ev):

   -15.5252  -7.7381  -6.3323  -3.7610   2.2711   3.6599   5.2199   5.5198
     6.4382   6.8129   7.7074   8.9407   9.0320  10.1610  10.4516  10.7133
    11.0482  11.1799  11.6184  12.3244  12.5793  13.8620  14.2207  14.3427
    14.6374  15.5329  15.9148  18.3565  18.5584  18.7842  19.0663  20.2307
    20.5274  21.3644  21.5015  22.5724  23.4124  24.2626  24.8282  24.9827

     occupation numbers 
     1.0000   1.0000   1.0000   1.0000   0.0000   0.0000   0.0000   0.0000
     0.0000   0.0000   0.0000   0.0000   0.0000   0.0000   0.0000   0.0000
     0.0000   0.0000   0.0000   0.0000   0.0000   0.0000   0.0000   0.0000
     0.0000   0.0000   0.0000   0.0000   0.0000   0.0000   0.0000   0.0000
     0.0000   0.0000   0.0000   0.0000   0.0000   0.0000   0.0000   0.0000

          k = 0.2500-0.4009 0.0000 ( 11977 PWs)   bands (ev):

   -15.6820  -7.6376  -5.9431  -4.0018   2.2924   3.0313   5.1849   5.6623
     5.6795   6.5939   7.1464   8.5663   9.3451  10.0847  10.8046  11.0235
    11.7213  11.9227  12.3308  12.6179  12.9773  14.0532  14.1234  14.8843
    15.2186  15.8335  15.8806  18.8412  19.1035  19.3838  19.5369  19.7785
    19.9985  20.9906  21.1572  22.2826  23.6265  24.4417  24.9040  25.5284

     occupation numbers 
     1.0000   1.0000   1.0000   1.0000   0.0000   0.0000   0.0000   0.0000
     0.0000   0.0000   0.0000   0.0000   0.0000   0.0000   0.0000   0.0000
     0.0000   0.0000   0.0000   0.0000   0.0000   0.0000   0.0000   0.0000
     0.0000   0.0000   0.0000   0.0000   0.0000   0.0000   0.0000   0.0000
     0.0000   0.0000   0.0000   0.0000   0.0000   0.0000   0.0000   0.0000

          k = 0.2500-0.3368 0.0000 ( 11939 PWs)   bands (ev):

   -15.8718  -7.4562  -5.5034  -4.2827   2.3255   2.3941   4.8525   5.2527
     5.2603   6.5877   7.0992   8.2918   9.1831  10.2153  10.9794  11.5078
    12.2572  12.4539  12.8267  13.5239  13.5858  14.2073  14.3039  15.3841
    15.4728  16.5224  16.9377  18.5785  18.9271  19.4242  19.4534  19.9768
    20.7105  21.0584  21.4543  22.4310  23.4530  23.4818  24.3257  24.4537

     occupation numbers 
     1.0000   1.0000   1.0000   1.0000   0.0000   0.0000   0.0000   0.0000
     0.0000   0.0000   0.0000   0.0000   0.0000   0.0000   0.0000   0.0000
     0.0000   0.0000   0.0000   0.0000   0.0000   0.0000   0.0000   0.0000
     0.0000   0.0000   0.0000   0.0000   0.0000   0.0000   0.0000   0.0000
     0.0000   0.0000   0.0000   0.0000   0.0000   0.0000   0.0000   0.0000

          k = 0.2500-0.2726 0.0000 ( 11926 PWs)   bands (ev):

   -16.0680  -7.1985  -5.0926  -4.5630   1.8226   2.3452   4.2860   4.8530
     5.1453   6.2047   7.2017   8.7140   8.7544  10.5973  11.1161  11.6777
    12.5067  12.5914  13.2851  13.6332  14.3533  15.2932  15.5883  15.6481
    15.8209  17.3549  18.0821  18.4128  18.5084  19.5411  19.6834  20.2323
    20.2736  21.7013  22.0937  22.1469  22.7542  22.7573  23.8320  24.0774

     occupation numbers 
     1.0000   1.0000   1.0000   1.0000   0.0000   0.0000   0.0000   0.0000
     0.0000   0.0000   0.0000   0.0000   0.0000   0.0000   0.0000   0.0000
     0.0000   0.0000   0.0000   0.0000   0.0000   0.0000   0.0000   0.0000
     0.0000   0.0000   0.0000   0.0000   0.0000   0.0000   0.0000   0.0000
     0.0000   0.0000   0.0000   0.0000   0.0000   0.0000   0.0000   0.0000

          k = 0.2500-0.2085 0.0000 ( 11912 PWs)   bands (ev):

   -16.2475  -6.8821  -4.8118  -4.7877   1.3591   2.3284   3.8262   4.5853
     5.0041   6.0207   7.0471   8.4148   9.3766  10.5994  11.4469  11.8100
    12.6240  12.6545  13.5138  13.5935  15.7145  15.8215  16.3522  16.6772
    17.2799  17.5757  17.6827  18.7065  19.0570  19.7918  20.1794  20.5120
    20.5323  20.6299  21.2357  21.5693  23.1099  23.1128  23.8213  23.9225

     occupation numbers 
     1.0000   1.0000   1.0000   1.0000   0.0000   0.0000   0.0000   0.0000
     0.0000   0.0000   0.0000   0.0000   0.0000   0.0000   0.0000   0.0000
     0.0000   0.0000   0.0000   0.0000   0.0000   0.0000   0.0000   0.0000
     0.0000   0.0000   0.0000   0.0000   0.0000   0.0000   0.0000   0.0000
     0.0000   0.0000   0.0000   0.0000   0.0000   0.0000   0.0000   0.0000

          k = 0.2500-0.1443 0.0000 ( 11889 PWs)   bands (ev):

   -16.3924  -6.5391  -5.0081  -4.6404   1.0282   2.2784   3.4954   4.4334
     4.9022   5.9758   6.9496   8.1385   9.7572  10.2618  11.8541  12.0643
    12.2169  12.9611  14.0722  14.2746  16.1460  16.5919  16.9522  17.1747
    17.5400  17.9082  18.5183  19.0032  19.0887  19.2553  19.9367  20.3277
    21.1961  21.2650  21.6228  21.6565  22.5773  22.8156  23.3880  24.4414

     occupation numbers 
     1.0000   1.0000   1.0000   1.0000   0.0000   0.0000   0.0000   0.0000
     0.0000   0.0000   0.0000   0.0000   0.0000   0.0000   0.0000   0.0000
     0.0000   0.0000   0.0000   0.0000   0.0000   0.0000   0.0000   0.0000
     0.0000   0.0000   0.0000   0.0000   0.0000   0.0000   0.0000   0.0000
     0.0000   0.0000   0.0000   0.0000   0.0000   0.0000   0.0000   0.0000

          k = 0.2500-0.0802 0.0000 ( 11882 PWs)   bands (ev):

   -16.4903  -6.2271  -5.1386  -4.6395   0.8313   2.2235   3.2905   4.3576
     4.8681   6.0266   6.9281   7.8744   9.9441   9.9607  11.5317  11.7242
    12.9220  13.6907  14.9576  15.1321  16.0359  16.4604  16.8709  17.6221
    17.7022  17.8810  18.0548  18.7505  18.8510  20.0891  20.5311  20.8588
    21.1582  21.4765  21.8804  22.2010  22.7680  23.5760  24.0289  24.4810

     occupation numbers 
     1.0000   1.0000   1.0000   1.0000   0.0000   0.0000   0.0000   0.0000
     0.0000   0.0000   0.0000   0.0000   0.0000   0.0000   0.0000   0.0000
     0.0000   0.0000   0.0000   0.0000   0.0000   0.0000   0.0000   0.0000
     0.0000   0.0000   0.0000   0.0000   0.0000   0.0000   0.0000   0.0000
     0.0000   0.0000   0.0000   0.0000   0.0000   0.0000   0.0000   0.0000

          k = 0.2500-0.0160 0.0000 ( 11882 PWs)   bands (ev):

   -16.5335  -6.0500  -5.1958  -4.6858   0.7522   2.1938   3.2043   4.3294
     4.8659   6.0975   6.9346   7.6962   9.7978  10.0956  11.1760  11.6523
    13.3234  14.5504  15.1305  15.9178  16.1159  16.3906  16.5169  16.8831
    17.3633  17.8910  18.4576  18.7884  19.1270  19.5443  19.5687  21.4233
    21.9084  22.6731  22.8730  23.1179  23.3873  23.5054  24.2147  24.2558

     occupation numbers 
     1.0000   1.0000   1.0000   1.0000   0.0000   0.0000   0.0000   0.0000
     0.0000   0.0000   0.0000   0.0000   0.0000   0.0000   0.0000   0.0000
     0.0000   0.0000   0.0000   0.0000   0.0000   0.0000   0.0000   0.0000
     0.0000   0.0000   0.0000   0.0000   0.0000   0.0000   0.0000   0.0000
     0.0000   0.0000   0.0000   0.0000   0.0000   0.0000   0.0000   0.0000

          k = 0.2500 0.0481 0.0000 ( 11888 PWs)   bands (ev):

   -16.5190  -6.1133  -5.1767  -4.6657   0.7782   2.2041   3.2329   4.3386
     4.8657   6.0682   6.9312   7.7629   9.8466  10.0418  11.3069  11.6767
    13.1848  14.1209  15.4437  15.4978  15.7080  16.5967  16.6836  17.3037
    17.3245  18.1080  18.2322  18.5802  18.9337  19.9498  20.0500  21.2337
    21.3674  22.2343  22.5096  22.6898  22.9517  23.4526  24.3323  24.4372

     occupation numbers 
     1.0000   1.0000   1.0000   1.0000   0.0000   0.0000   0.0000   0.0000
     0.0000   0.0000   0.0000   0.0000   0.0000   0.0000   0.0000   0.0000
     0.0000   0.0000   0.0000   0.0000   0.0000   0.0000   0.0000   0.0000
     0.0000   0.0000   0.0000   0.0000   0.0000   0.0000   0.0000   0.0000
     0.0000   0.0000   0.0000   0.0000   0.0000   0.0000   0.0000   0.0000

          k = 0.2500 0.1123 0.0000 ( 11886 PWs)   bands (ev):

   -16.4478  -6.3740  -5.0821  -4.6258   0.9139   2.2494   3.3777   4.3883
     4.8782   5.9918   6.9318   8.0048   9.8679  10.0866  11.7893  11.8104
    12.5678  13.2953  14.4915  14.6881  16.2916  16.3963  17.0831  17.4460
    17.4859  18.1947  18.3380  18.5649  19.0835  19.8367  20.2610  20.4919
    21.2897  21.3272  21.5983  21.8175  22.7234  23.1840  23.4254  24.4365

     occupation numbers 
     1.0000   1.0000   1.0000   1.0000   0.0000   0.0000   0.0000   0.0000
     0.0000   0.0000   0.0000   0.0000   0.0000   0.0000   0.0000   0.0000
     0.0000   0.0000   0.0000   0.0000   0.0000   0.0000   0.0000   0.0000
     0.0000   0.0000   0.0000   0.0000   0.0000   0.0000   0.0000   0.0000
     0.0000   0.0000   0.0000   0.0000   0.0000   0.0000   0.0000   0.0000

          k = 0.3056 0.2085 0.0000 ( 11917 PWs)   bands (ev):

   -16.0722  -7.3410  -4.8183  -4.5674   1.7051   2.2879   4.1664   4.8079
     4.9252   6.3538   7.1383   8.7711   9.2454  10.9200  11.2467  11.5349
    12.0244  12.1863  12.7773  13.1158  14.8146  15.2186  16.2630  16.6139
    17.5377  17.8769  17.9033  18.4088  19.0219  19.2982  19.4740  19.6806
    20.0508  20.3854  21.1931  21.3660  22.6142  22.6837  23.4614  24.0817

     occupation numbers 
     1.0000   1.0000   1.0000   1.0000   0.0000   0.0000   0.0000   0.0000
     0.0000   0.0000   0.0000   0.0000   0.0000   0.0000   0.0000   0.0000
     0.0000   0.0000   0.0000   0.0000   0.0000   0.0000   0.0000   0.0000
     0.0000   0.0000   0.0000   0.0000   0.0000   0.0000   0.0000   0.0000
     0.0000   0.0000   0.0000   0.0000   0.0000   0.0000   0.0000   0.0000

          k = 0.3056 0.2726 0.0000 ( 11914 PWs)   bands (ev):

   -15.9177  -7.5959  -5.0700  -4.3466   2.1151   2.2358   4.4869   5.1054
     5.1244   6.6316   7.2221   8.8571   9.0009  10.4076  10.9438  11.2947
    11.7785  11.8854  13.3060  13.3278  14.4774  14.8111  14.8629  15.6273
    16.1533  17.3047  18.3469  18.7335  18.7558  18.9716  19.0424  19.6423
    20.3588  20.9511  21.4706  21.7823  22.4024  23.2326  23.3784  23.9599

     occupation numbers 
     1.0000   1.0000   1.0000   1.0000   0.0000   0.0000   0.0000   0.0000
     0.0000   0.0000   0.0000   0.0000   0.0000   0.0000   0.0000   0.0000
     0.0000   0.0000   0.0000   0.0000   0.0000   0.0000   0.0000   0.0000
     0.0000   0.0000   0.0000   0.0000   0.0000   0.0000   0.0000   0.0000
     0.0000   0.0000   0.0000   0.0000   0.0000   0.0000   0.0000   0.0000

          k = 0.3056 0.3368 0.0000 ( 11934 PWs)   bands (ev):

   -15.7517  -7.7642  -5.4807  -4.1033   2.1949   2.6624   4.8150   5.5036
     5.5179   6.9962   7.0254   8.6507   9.1457  10.1564  10.4734  10.8443
    11.7245  11.7522  13.3502  13.5274  13.6843  14.1544  14.5091  14.7805
    14.9408  16.7152  17.4156  18.0520  18.4029  19.0351  19.3795  20.5060
    20.5190  21.0873  22.0115  22.0671  22.7193  23.0110  23.6882  23.8142

     occupation numbers 
     1.0000   1.0000   1.0000   1.0000   0.0000   0.0000   0.0000   0.0000
     0.0000   0.0000   0.0000   0.0000   0.0000   0.0000   0.0000   0.0000
     0.0000   0.0000   0.0000   0.0000   0.0000   0.0000   0.0000   0.0000
     0.0000   0.0000   0.0000   0.0000   0.0000   0.0000   0.0000   0.0000
     0.0000   0.0000   0.0000   0.0000   0.0000   0.0000   0.0000   0.0000

          k = 0.3056 0.4009 0.0000 ( 11951 PWs)   bands (ev):

   -15.5946  -7.8232  -5.9776  -3.8664   2.2006   3.2978   5.0611   5.7328
     6.1115   6.7310   7.4586   8.8810   9.0079  10.1777  10.1821  10.5547
    11.3015  11.6159  12.3449  12.8531  13.3600  13.5910  13.7998  14.8919
    15.0079  15.8725  16.2270  17.9616  18.1875  19.2473  19.7975  20.2303
    20.3504  21.1154  21.7485  22.1183  23.3440  23.8829  24.0955  24.6584

     occupation numbers 
     1.0000   1.0000   1.0000   1.0000   0.0000   0.0000   0.0000   0.0000
     0.0000   0.0000   0.0000   0.0000   0.0000   0.0000   0.0000   0.0000
     0.0000   0.0000   0.0000   0.0000   0.0000   0.0000   0.0000   0.0000
     0.0000   0.0000   0.0000   0.0000   0.0000   0.0000   0.0000   0.0000
     0.0000   0.0000   0.0000   0.0000   0.0000   0.0000   0.0000   0.0000

          k = 0.3056 0.4651 0.0000 ( 11961 PWs)   bands (ev):

   -15.4676  -7.7618  -6.4833  -3.6701   2.2679   3.9276   5.2414   5.3159
     6.8360   7.1681   7.8461   8.8766   9.1525   9.7760  10.1819  10.5123
    11.0398  11.1726  11.4388  12.1573  12.4242  13.5231  13.8134  14.4335
    14.7379  15.6258  15.9866  17.9284  18.0147  18.6950  19.0245  20.3597
    20.8626  21.6277  21.8925  22.7066  23.2181  23.8895  24.6589  24.9056

     occupation numbers 
     1.0000   1.0000   1.0000   1.0000   0.0000   0.0000   0.0000   0.0000
     0.0000   0.0000   0.0000   0.0000   0.0000   0.0000   0.0000   0.0000
     0.0000   0.0000   0.0000   0.0000   0.0000   0.0000   0.0000   0.0000
     0.0000   0.0000   0.0000   0.0000   0.0000   0.0000   0.0000   0.0000
     0.0000   0.0000   0.0000   0.0000   0.0000   0.0000   0.0000   0.0000

          k = 0.3056 0.5292 0.0000 ( 11973 PWs)   bands (ev):

   -15.3897  -7.5943  -6.9188  -3.5475   2.3611   4.3748   4.8758   5.4314
     7.3037   7.8787   8.0925   9.1007   9.1779   9.4254   9.9615   9.9994
    10.5921  10.7027  11.6424  12.0063  12.1952  12.9191  13.5392  13.9415
    14.3463  16.2463  16.3740  17.4904  17.7231  18.0729  18.3465  20.6451
    21.8046  22.2347  22.2401  23.2245  23.2315  23.5689  24.0056  24.4080

     occupation numbers 
     1.0000   1.0000   1.0000   1.0000   0.0000   0.0000   0.0000   0.0000
     0.0000   0.0000   0.0000   0.0000   0.0000   0.0000   0.0000   0.0000
     0.0000   0.0000   0.0000   0.0000   0.0000   0.0000   0.0000   0.0000
     0.0000   0.0000   0.0000   0.0000   0.0000   0.0000   0.0000   0.0000
     0.0000   0.0000   0.0000   0.0000   0.0000   0.0000   0.0000   0.0000

          k = 0.3056 0.5934 0.0000 ( 11969 PWs)   bands (ev):

   -15.3735  -7.5099  -7.0587  -3.5217   2.3888   4.4694   4.7718   5.5033
     7.2855   8.1515   8.4216   8.9258   9.1197   9.4070   9.7611   9.8794
    10.4190  10.8252  11.4844  12.0044  12.5957  12.6786  13.1775  13.8003
    14.3740  16.5724  16.6471  17.2197  17.3297  17.9562  18.3246  20.7241
    22.0849  22.3893  22.5160  23.0889  23.1116  23.5691  24.1411  24.3358

     occupation numbers 
     1.0000   1.0000   1.0000   1.0000   0.0000   0.0000   0.0000   0.0000
     0.0000   0.0000   0.0000   0.0000   0.0000   0.0000   0.0000   0.0000
     0.0000   0.0000   0.0000   0.0000   0.0000   0.0000   0.0000   0.0000
     0.0000   0.0000   0.0000   0.0000   0.0000   0.0000   0.0000   0.0000
     0.0000   0.0000   0.0000   0.0000   0.0000   0.0000   0.0000   0.0000

          k = 0.3056 0.6575 0.0000 ( 11956 PWs)   bands (ev):

   -15.4215  -7.6880  -6.7161  -3.5978   2.3162   4.1882   5.0671   5.3338
     7.1618   7.5206   7.9190   8.9812   9.1952   9.5825  10.2332  10.2333
    10.6886  10.8566  11.6676  12.0478  12.0740  13.2564  13.7234  14.3184
    14.3302  15.8683  16.1665  17.7773  17.9176  18.4409  18.4838  20.5100
    21.3539  21.9346  22.0598  23.0142  23.2212  23.7624  24.2435  24.6096

     occupation numbers 
     1.0000   1.0000   1.0000   1.0000   0.0000   0.0000   0.0000   0.0000
     0.0000   0.0000   0.0000   0.0000   0.0000   0.0000   0.0000   0.0000
     0.0000   0.0000   0.0000   0.0000   0.0000   0.0000   0.0000   0.0000
     0.0000   0.0000   0.0000   0.0000   0.0000   0.0000   0.0000   0.0000
     0.0000   0.0000   0.0000   0.0000   0.0000   0.0000   0.0000   0.0000

          k = 0.3056 0.7217 0.0000 ( 11951 PWs)   bands (ev):

   -15.5260  -7.8076  -6.2340  -3.7610   2.2272   3.6220   5.1543   5.5722
     6.4666   6.8752   7.6873   8.9048   9.0395   9.9905  10.1371  10.6381
    11.1455  11.4066  11.8070  12.4036  12.8641  13.6040  13.8462  14.7326
    14.9162  15.7549  15.8509  17.9614  18.1023  19.0370  19.5413  20.2515
    20.4353  21.3369  21.7771  22.3957  23.2664  23.9457  24.6751  25.0754

     occupation numbers 
     1.0000   1.0000   1.0000   1.0000   0.0000   0.0000   0.0000   0.0000
     0.0000   0.0000   0.0000   0.0000   0.0000   0.0000   0.0000   0.0000
     0.0000   0.0000   0.0000   0.0000   0.0000   0.0000   0.0000   0.0000
     0.0000   0.0000   0.0000   0.0000   0.0000   0.0000   0.0000   0.0000
     0.0000   0.0000   0.0000   0.0000   0.0000   0.0000   0.0000   0.0000

          k = 0.3056-0.3689 0.0000 ( 11948 PWs)   bands (ev):

   -15.6707  -7.8084  -5.7234  -3.9820   2.1902   2.9735   4.9503   5.6842
     5.7915   6.8218   7.2186   8.7314   9.1075  10.1904  10.3008  10.6248
    11.5473  11.6985  12.8939  13.4091  13.6156  13.6820  13.9341  14.8810
    14.9751  16.2259  16.8023  17.9755  18.2806  19.1772  19.6610  20.3421
    20.6429  20.9704  21.8388  21.9943  23.2961  23.3602  23.9801  24.0237

     occupation numbers 
     1.0000   1.0000   1.0000   1.0000   0.0000   0.0000   0.0000   0.0000
     0.0000   0.0000   0.0000   0.0000   0.0000   0.0000   0.0000   0.0000
     0.0000   0.0000   0.0000   0.0000   0.0000   0.0000   0.0000   0.0000
     0.0000   0.0000   0.0000   0.0000   0.0000   0.0000   0.0000   0.0000
     0.0000   0.0000   0.0000   0.0000   0.0000   0.0000   0.0000   0.0000

          k = 0.3056-0.3047 0.0000 ( 11926 PWs)   bands (ev):

   -15.8349  -7.6926  -5.2596  -4.2261   2.2115   2.3738   4.6569   5.2959
     5.2974   6.8007   7.1778   8.6928   9.0997  10.2319  10.6894  11.0850
    11.7389  11.8583  13.3769  13.4888  14.1749  14.5122  14.7644  14.9357
    15.4085  17.1049  18.0153  18.2929  18.5832  18.9704  19.0599  20.0635
    20.5419  21.3727  21.7589  21.8684  22.5098  22.9376  23.4256  23.9109

     occupation numbers 
     1.0000   1.0000   1.0000   1.0000   0.0000   0.0000   0.0000   0.0000
     0.0000   0.0000   0.0000   0.0000   0.0000   0.0000   0.0000   0.0000
     0.0000   0.0000   0.0000   0.0000   0.0000   0.0000   0.0000   0.0000
     0.0000   0.0000   0.0000   0.0000   0.0000   0.0000   0.0000   0.0000
     0.0000   0.0000   0.0000   0.0000   0.0000   0.0000   0.0000   0.0000

          k = 0.3056-0.2406 0.0000 ( 11924 PWs)   bands (ev):

   -15.9975  -7.4774  -4.9207  -4.4613   1.8913   2.2628   4.3198   4.9408
     5.0007   6.4844   7.1924   8.8862   9.0680  10.6460  11.2319  11.3628
    11.8738  11.9700  13.0513  13.2118  14.5906  14.9902  15.5345  16.2528
    16.9590  17.4843  18.0966  18.6480  19.0051  19.2299  19.4712  19.7835
    19.9242  20.2510  21.2523  21.6699  22.5604  23.0813  23.3041  24.2034

     occupation numbers 
     1.0000   1.0000   1.0000   1.0000   0.0000   0.0000   0.0000   0.0000
     0.0000   0.0000   0.0000   0.0000   0.0000   0.0000   0.0000   0.0000
     0.0000   0.0000   0.0000   0.0000   0.0000   0.0000   0.0000   0.0000
     0.0000   0.0000   0.0000   0.0000   0.0000   0.0000   0.0000   0.0000
     0.0000   0.0000   0.0000   0.0000   0.0000   0.0000   0.0000   0.0000

          k = 0.3056-0.1764 0.0000 ( 11908 PWs)   bands (ev):

   -16.1399  -7.1916  -4.7650  -4.6624   1.5564   2.3080   4.0319   4.7067
     4.9008   6.2353   7.0892   8.6565   9.3518  11.0162  11.2485  11.7637
    12.1337  12.4194  12.7445  13.0929  15.1095  15.5106  16.7212  16.8345
    17.1819  18.1333  18.5247  18.5786  18.7208  18.7827  19.5393  19.8354
    20.3453  20.7261  21.2098  21.2688  22.4744  22.5339  23.8756  23.9207

     occupation numbers 
     1.0000   1.0000   1.0000   1.0000   0.0000   0.0000   0.0000   0.0000
     0.0000   0.0000   0.0000   0.0000   0.0000   0.0000   0.0000   0.0000
     0.0000   0.0000   0.0000   0.0000   0.0000   0.0000   0.0000   0.0000
     0.0000   0.0000   0.0000   0.0000   0.0000   0.0000   0.0000   0.0000
     0.0000   0.0000   0.0000   0.0000   0.0000   0.0000   0.0000   0.0000

          k = 0.3056-0.1123 0.0000 ( 11912 PWs)   bands (ev):

   -16.2475  -6.8821  -4.8118  -4.7877   1.3591   2.3284   3.8262   4.5853
     5.0041   6.0207   7.0471   8.4148   9.3766  10.5994  11.4469  11.8100
    12.6240  12.6545  13.5138  13.5935  15.7145  15.8215  16.3522  16.6772
    17.2799  17.5757  17.6827  18.7065  19.0570  19.7918  20.1794  20.5120
    20.5323  20.6299  21.2357  21.5693  23.1099  23.1128  23.8213  23.9225

     occupation numbers 
     1.0000   1.0000   1.0000   1.0000   0.0000   0.0000   0.0000   0.0000
     0.0000   0.0000   0.0000   0.0000   0.0000   0.0000   0.0000   0.0000
     0.0000   0.0000   0.0000   0.0000   0.0000   0.0000   0.0000   0.0000
     0.0000   0.0000   0.0000   0.0000   0.0000   0.0000   0.0000   0.0000
     0.0000   0.0000   0.0000   0.0000   0.0000   0.0000   0.0000   0.0000

          k = 0.3056-0.0481 0.0000 ( 11900 PWs)   bands (ev):

   -16.3105  -6.6335  -4.8981  -4.8936   1.2651   2.3306   3.7091   4.5374
     5.2405   5.8207   7.0661   8.1893   9.2949  10.3238  11.0946  12.0316
    13.1513  13.2094  14.4433  14.4615  14.6708  15.7843  16.1034  16.8800
    17.1420  17.4780  17.6064  18.3128  18.7854  19.4861  19.5591  21.0560
    21.1976  21.8606  22.4499  22.6033  22.9166  23.2369  24.1169  24.2997

     occupation numbers 
     1.0000   1.0000   1.0000   1.0000   0.0000   0.0000   0.0000   0.0000
     0.0000   0.0000   0.0000   0.0000   0.0000   0.0000   0.0000   0.0000
     0.0000   0.0000   0.0000   0.0000   0.0000   0.0000   0.0000   0.0000
     0.0000   0.0000   0.0000   0.0000   0.0000   0.0000   0.0000   0.0000
     0.0000   0.0000   0.0000   0.0000   0.0000   0.0000   0.0000   0.0000

          k = 0.3056 0.0160 0.0000 ( 11904 PWs)   bands (ev):

   -16.3233  -6.5722  -4.9283  -4.9157   1.2477   2.3299   3.6854   4.5297
     5.3379   5.7445   7.0764   8.1290   9.2673  10.2680  11.0200  12.0473
    13.2877  13.6386  14.1252  14.8787  14.9957  15.3567  15.5430  17.2634
    17.3072  17.6732  17.8223  17.9574  18.3606  19.0429  19.6362  21.2461
    21.5577  22.0822  22.4483  22.8812  23.3819  23.8357  24.1869  24.2830

     occupation numbers 
     1.0000   1.0000   1.0000   1.0000   0.0000   0.0000   0.0000   0.0000
     0.0000   0.0000   0.0000   0.0000   0.0000   0.0000   0.0000   0.0000
     0.0000   0.0000   0.0000   0.0000   0.0000   0.0000   0.0000   0.0000
     0.0000   0.0000   0.0000   0.0000   0.0000   0.0000   0.0000   0.0000
     0.0000   0.0000   0.0000   0.0000   0.0000   0.0000   0.0000   0.0000

          k = 0.3056 0.0802 0.0000 ( 11909 PWs)   bands (ev):

   -16.2850  -6.7427  -4.8633  -4.8396   1.3013   2.3307   3.7562   4.5547
     5.1155   5.9189   7.0528   8.2925   9.3378  10.4355  11.2407  11.9713
    12.8633  12.9140  13.9863  14.0130  15.1890  16.0550  16.5926  16.6234
    16.8145  17.4519  17.5321  18.7293  19.0943  19.4647  19.9693  20.8026
    20.8529  21.2410  21.7834  22.1007  23.0000  23.0875  24.1285  24.1859

     occupation numbers 
     1.0000   1.0000   1.0000   1.0000   0.0000   0.0000   0.0000   0.0000
     0.0000   0.0000   0.0000   0.0000   0.0000   0.0000   0.0000   0.0000
     0.0000   0.0000   0.0000   0.0000   0.0000   0.0000   0.0000   0.0000
     0.0000   0.0000   0.0000   0.0000   0.0000   0.0000   0.0000   0.0000
     0.0000   0.0000   0.0000   0.0000   0.0000   0.0000   0.0000   0.0000

          k = 0.3056 0.1443 0.0000 ( 11902 PWs)   bands (ev):

   -16.1988  -7.0357  -4.7578  -4.7444   1.4425   2.3214   3.9183   4.6341
     4.9285   6.1252   7.0579   8.5384   9.3890  10.8031  11.5453  11.6764
    12.3292  12.5562  13.0637  13.2572  15.4538  15.8193  16.4357  16.7333
    17.5113  18.0006  18.0614  18.2378  19.0680  19.5858  19.8333  20.1050
    20.3761  20.5242  21.2582  21.3645  22.7281  22.7688  23.7663  24.1897

     occupation numbers 
     1.0000   1.0000   1.0000   1.0000   0.0000   0.0000   0.0000   0.0000
     0.0000   0.0000   0.0000   0.0000   0.0000   0.0000   0.0000   0.0000
     0.0000   0.0000   0.0000   0.0000   0.0000   0.0000   0.0000   0.0000
     0.0000   0.0000   0.0000   0.0000   0.0000   0.0000   0.0000   0.0000
     0.0000   0.0000   0.0000   0.0000   0.0000   0.0000   0.0000   0.0000

          k = 0.3611 0.2406 0.0000 ( 11931 PWs)   bands (ev):

   -15.8364  -7.8673  -4.9204  -4.2250   2.0974   2.1748   4.4086   5.2709
     5.3185   6.8614   7.2928   8.9073   9.2050  10.0904  10.7181  11.0657
    11.3989  11.8802  12.9956  13.2699  13.6553  14.4295  16.0441  16.3865
    17.3037  17.5963  17.6354  18.2728  18.4579  19.0260  19.1478  19.3998
    19.9077  20.1666  21.0937  21.2357  22.1269  22.5960  22.9796  23.6874

     occupation numbers 
     1.0000   1.0000   1.0000   1.0000   0.0000   0.0000   0.0000   0.0000
     0.0000   0.0000   0.0000   0.0000   0.0000   0.0000   0.0000   0.0000
     0.0000   0.0000   0.0000   0.0000   0.0000   0.0000   0.0000   0.0000
     0.0000   0.0000   0.0000   0.0000   0.0000   0.0000   0.0000   0.0000
     0.0000   0.0000   0.0000   0.0000   0.0000   0.0000   0.0000   0.0000

          k = 0.3611 0.3047 0.0000 ( 11929 PWs)   bands (ev):

   -15.7101  -8.0260  -5.1806  -4.0361   2.0197   2.5634   4.6005   5.6071
     5.7424   7.1190   7.2573   8.8115   9.1098   9.8300   9.9640  10.7695
    11.4362  11.8333  13.0117  13.2010  14.0489  14.4002  14.8624  15.3550
    15.9711  16.8847  17.6048  18.0190  18.6093  18.9651  19.1207  19.9230
    20.4490  20.7214  21.2862  21.4591  22.1373  23.0804  23.1218  23.4795

     occupation numbers 
     1.0000   1.0000   1.0000   1.0000   0.0000   0.0000   0.0000   0.0000
     0.0000   0.0000   0.0000   0.0000   0.0000   0.0000   0.0000   0.0000
     0.0000   0.0000   0.0000   0.0000   0.0000   0.0000   0.0000   0.0000
     0.0000   0.0000   0.0000   0.0000   0.0000   0.0000   0.0000   0.0000
     0.0000   0.0000   0.0000   0.0000   0.0000   0.0000   0.0000   0.0000

          k = 0.3611 0.3689 0.0000 ( 11935 PWs)   bands (ev):

   -15.5864  -8.0700  -5.6098  -3.8484   2.0174   3.1062   4.8423   5.8455
     6.2757   7.1099   7.4127   8.6932   9.0498   9.5892   9.6103  10.8182
    11.3299  11.3939  12.9627  13.0514  13.4927  14.0210  14.4591  14.8751
    15.0580  16.4754  17.0842  17.3389  17.4173  19.2110  19.6654  20.7563
    20.9021  21.0007  21.8863  21.9583  22.4432  22.8367  23.0715  23.4994

     occupation numbers 
     1.0000   1.0000   1.0000   1.0000   0.0000   0.0000   0.0000   0.0000
     0.0000   0.0000   0.0000   0.0000   0.0000   0.0000   0.0000   0.0000
     0.0000   0.0000   0.0000   0.0000   0.0000   0.0000   0.0000   0.0000
     0.0000   0.0000   0.0000   0.0000   0.0000   0.0000   0.0000   0.0000
     0.0000   0.0000   0.0000   0.0000   0.0000   0.0000   0.0000   0.0000

          k = 0.3611 0.4330 0.0000 ( 11942 PWs)   bands (ev):

   -15.4809  -7.9858  -6.1268  -3.6867   2.1095   3.7178   5.0690   5.5790
     6.8755   7.3679   7.7164   8.6680   8.8078   9.4258   9.8309  10.5230
    11.3202  11.3209  12.1963  12.4042  12.8938  13.4012  13.5027  15.2600
    15.3906  15.7750  16.1384  17.0843  17.2070  19.1666  19.9298  20.4035
    20.7773  21.5162  22.0877  22.1541  22.9717  23.1570  23.8254  24.5668

     occupation numbers 
     1.0000   1.0000   1.0000   1.0000   0.0000   0.0000   0.0000   0.0000
     0.0000   0.0000   0.0000   0.0000   0.0000   0.0000   0.0000   0.0000
     0.0000   0.0000   0.0000   0.0000   0.0000   0.0000   0.0000   0.0000
     0.0000   0.0000   0.0000   0.0000   0.0000   0.0000   0.0000   0.0000
     0.0000   0.0000   0.0000   0.0000   0.0000   0.0000   0.0000   0.0000

          k = 0.3611 0.4972 0.0000 ( 11963 PWs)   bands (ev):

   -15.4069  -7.7767  -6.6489  -3.5730   2.2688   4.2345   5.0754   5.2994
     7.2823   7.9102   8.0932   8.6888   8.7274   9.4614  10.0145  10.0748
    11.0050  11.1979  11.6546  11.8440  12.5032  12.9069  13.2111  14.5963
    14.8156  16.1427  16.1940  17.0669  17.3449  18.6158  18.9702  20.5608
    21.3734  22.0835  22.2519  22.8951  22.9360  23.2242  24.8177  24.9687

     occupation numbers 
     1.0000   1.0000   1.0000   1.0000   0.0000   0.0000   0.0000   0.0000
     0.0000   0.0000   0.0000   0.0000   0.0000   0.0000   0.0000   0.0000
     0.0000   0.0000   0.0000   0.0000   0.0000   0.0000   0.0000   0.0000
     0.0000   0.0000   0.0000   0.0000   0.0000   0.0000   0.0000   0.0000
     0.0000   0.0000   0.0000   0.0000   0.0000   0.0000   0.0000   0.0000

          k = 0.3611 0.5613 0.0000 ( 11969 PWs)   bands (ev):

   -15.3735  -7.5099  -7.0587  -3.5217   2.3888   4.4694   4.7718   5.5033
     7.2855   8.1515   8.4216   8.9258   9.1197   9.4070   9.7611   9.8794
    10.4190  10.8252  11.4844  12.0044  12.5957  12.6786  13.1775  13.8003
    14.3740  16.5724  16.6471  17.2197  17.3297  17.9562  18.3246  20.7241
    22.0849  22.3893  22.5160  23.0889  23.1116  23.5691  24.1411  24.3358

     occupation numbers 
     1.0000   1.0000   1.0000   1.0000   0.0000   0.0000   0.0000   0.0000
     0.0000   0.0000   0.0000   0.0000   0.0000   0.0000   0.0000   0.0000
     0.0000   0.0000   0.0000   0.0000   0.0000   0.0000   0.0000   0.0000
     0.0000   0.0000   0.0000   0.0000   0.0000   0.0000   0.0000   0.0000
     0.0000   0.0000   0.0000   0.0000   0.0000   0.0000   0.0000   0.0000

          k = 0.3611 0.6255 0.0000 ( 11965 PWs)   bands (ev):

   -15.3847  -7.6372  -6.8831  -3.5390   2.3435   4.3926   4.8802   5.4201
     7.3063   8.0881   8.3364   8.7225   8.8739   9.5053   9.9160   9.9880
    10.5970  10.9458  11.6900  11.7840  12.5678  12.9031  12.9541  14.2759
    14.4328  16.3755  16.4975  17.1098  17.3315  18.4077  18.4251  20.6688
    21.7871  22.3340  22.3391  22.9881  23.0905  23.3878  24.4391  24.5801

     occupation numbers 
     1.0000   1.0000   1.0000   1.0000   0.0000   0.0000   0.0000   0.0000
     0.0000   0.0000   0.0000   0.0000   0.0000   0.0000   0.0000   0.0000
     0.0000   0.0000   0.0000   0.0000   0.0000   0.0000   0.0000   0.0000
     0.0000   0.0000   0.0000   0.0000   0.0000   0.0000   0.0000   0.0000
     0.0000   0.0000   0.0000   0.0000   0.0000   0.0000   0.0000   0.0000

          k = 0.3611 0.6896 0.0000 ( 11951 PWs)   bands (ev):

   -15.4392  -7.8957  -6.3923  -3.6227   2.1852   4.0017   5.1799   5.3231
     7.1362   7.6399   7.8732   8.6896   8.7254   9.4035   9.9937  10.2308
    11.3108  11.4073  11.8040  11.9090  12.6717  13.1241  13.3480  14.9046
    15.3305  15.9118  15.9237  17.1190  17.2350  18.9088  19.5249  20.4227
    21.0013  21.8162  22.1580  22.5134  22.9407  23.1942  24.5695  25.1035

     occupation numbers 
     1.0000   1.0000   1.0000   1.0000   0.0000   0.0000   0.0000   0.0000
     0.0000   0.0000   0.0000   0.0000   0.0000   0.0000   0.0000   0.0000
     0.0000   0.0000   0.0000   0.0000   0.0000   0.0000   0.0000   0.0000
     0.0000   0.0000   0.0000   0.0000   0.0000   0.0000   0.0000   0.0000
     0.0000   0.0000   0.0000   0.0000   0.0000   0.0000   0.0000   0.0000

          k = 0.3611 0.7538 0.0000 ( 11938 PWs)   bands (ev):

   -15.5304  -8.0442  -5.8626  -3.7628   2.0518   3.4115   4.9586   5.7793
     6.5739   7.1702   7.5679   8.6630   8.9319   9.5061   9.6672  10.8015
    11.1690  11.3509  12.7113  12.8277  13.1236  13.5496  13.9732  15.1761
    15.2109  16.0425  16.7230  16.9916  17.3062  19.2655  19.8749  20.7565
    20.7743  21.1668  21.9179  22.0484  22.8926  22.9709  23.3827  23.8597

     occupation numbers 
     1.0000   1.0000   1.0000   1.0000   0.0000   0.0000   0.0000   0.0000
     0.0000   0.0000   0.0000   0.0000   0.0000   0.0000   0.0000   0.0000
     0.0000   0.0000   0.0000   0.0000   0.0000   0.0000   0.0000   0.0000
     0.0000   0.0000   0.0000   0.0000   0.0000   0.0000   0.0000   0.0000
     0.0000   0.0000   0.0000   0.0000   0.0000   0.0000   0.0000   0.0000

          k = 0.3611-0.3368 0.0000 ( 11930 PWs)   bands (ev):

   -15.6469  -8.0635  -5.3788  -3.9405   2.0072   2.8193   4.7206   5.7645
     5.9968   7.1717   7.2608   8.7484   9.0957   9.6952   9.7203  10.7544
    11.4276  11.6137  12.9797  13.1687  14.0034  14.4469  14.6870  14.7018
    15.3357  16.7152  17.4939  17.4992  18.0043  19.1213  19.3561  20.3333
    20.8850  21.0167  21.5518  21.6586  22.3242  22.8793  22.8967  23.4555

     occupation numbers 
     1.0000   1.0000   1.0000   1.0000   0.0000   0.0000   0.0000   0.0000
     0.0000   0.0000   0.0000   0.0000   0.0000   0.0000   0.0000   0.0000
     0.0000   0.0000   0.0000   0.0000   0.0000   0.0000   0.0000   0.0000
     0.0000   0.0000   0.0000   0.0000   0.0000   0.0000   0.0000   0.0000
     0.0000   0.0000   0.0000   0.0000   0.0000   0.0000   0.0000   0.0000

          k = 0.3611-0.2726 0.0000 ( 11923 PWs)   bands (ev):

   -15.7739  -7.9597  -5.0251  -4.1320   2.0514   2.3472   4.4929   5.4333
     5.5151   6.9871   7.2998   8.8678   9.1508   9.9477  10.3216  10.8781
    11.4200  11.9277  13.0566  13.2271  13.7250  14.4422  15.3928  15.9735
    16.7022  17.1373  17.6964  18.3585  18.4008  19.2402  19.3729  19.6742
    19.8092  20.0328  21.3219  21.4028  22.0036  22.8807  23.1075  23.7807

     occupation numbers 
     1.0000   1.0000   1.0000   1.0000   0.0000   0.0000   0.0000   0.0000
     0.0000   0.0000   0.0000   0.0000   0.0000   0.0000   0.0000   0.0000
     0.0000   0.0000   0.0000   0.0000   0.0000   0.0000   0.0000   0.0000
     0.0000   0.0000   0.0000   0.0000   0.0000   0.0000   0.0000   0.0000
     0.0000   0.0000   0.0000   0.0000   0.0000   0.0000   0.0000   0.0000

          k = 0.3611-0.2085 0.0000 ( 11920 PWs)   bands (ev):

   -15.8956  -7.7525  -4.8702  -4.3125   2.0455   2.1519   4.3545   5.1323
     5.1587   6.7378   7.2581   8.9250   9.2285  10.2674  11.0815  11.3077
    11.4173  11.7346  12.8664  13.2878  13.8535  14.5047  16.5475  16.5762
    16.9947  18.1571  18.2035  18.3566  18.4558  18.5531  18.8592  19.1380
    20.2283  20.7213  20.8745  20.9323  22.2793  22.4835  23.0925  23.6354

     occupation numbers 
     1.0000   1.0000   1.0000   1.0000   0.0000   0.0000   0.0000   0.0000
     0.0000   0.0000   0.0000   0.0000   0.0000   0.0000   0.0000   0.0000
     0.0000   0.0000   0.0000   0.0000   0.0000   0.0000   0.0000   0.0000
     0.0000   0.0000   0.0000   0.0000   0.0000   0.0000   0.0000   0.0000
     0.0000   0.0000   0.0000   0.0000   0.0000   0.0000   0.0000   0.0000

          k = 0.3611-0.1443 0.0000 ( 11924 PWs)   bands (ev):

   -15.9975  -7.4774  -4.9207  -4.4613   1.8913   2.2628   4.3198   4.9408
     5.0007   6.4844   7.1924   8.8862   9.0680  10.6460  11.2319  11.3628
    11.8738  11.9700  13.0513  13.2118  14.5906  14.9902  15.5345  16.2528
    16.9590  17.4843  18.0966  18.6480  19.0051  19.2299  19.4712  19.7835
    19.9242  20.2510  21.2523  21.6699  22.5604  23.0813  23.3041  24.2034

     occupation numbers 
     1.0000   1.0000   1.0000   1.0000   0.0000   0.0000   0.0000   0.0000
     0.0000   0.0000   0.0000   0.0000   0.0000   0.0000   0.0000   0.0000
     0.0000   0.0000   0.0000   0.0000   0.0000   0.0000   0.0000   0.0000
     0.0000   0.0000   0.0000   0.0000   0.0000   0.0000   0.0000   0.0000
     0.0000   0.0000   0.0000   0.0000   0.0000   0.0000   0.0000   0.0000

          k = 0.3611-0.0802 0.0000 ( 11926 PWs)   bands (ev):

   -16.0680  -7.1985  -5.0926  -4.5630   1.8226   2.3452   4.2860   4.8530
     5.1453   6.2047   7.2017   8.7140   8.7544  10.5973  11.1161  11.6777
    12.5067  12.5914  13.2851  13.6332  14.3533  15.2932  15.5883  15.6481
    15.8209  17.3549  18.0821  18.4128  18.5084  19.5411  19.6834  20.2323
    20.2736  21.7013  22.0937  22.1469  22.7542  22.7573  23.8320  24.0774

     occupation numbers 
     1.0000   1.0000   1.0000   1.0000   0.0000   0.0000   0.0000   0.0000
     0.0000   0.0000   0.0000   0.0000   0.0000   0.0000   0.0000   0.0000
     0.0000   0.0000   0.0000   0.0000   0.0000   0.0000   0.0000   0.0000
     0.0000   0.0000   0.0000   0.0000   0.0000   0.0000   0.0000   0.0000
     0.0000   0.0000   0.0000   0.0000   0.0000   0.0000   0.0000   0.0000

          k = 0.3611-0.0160 0.0000 ( 11927 PWs)   bands (ev):

   -16.0996  -7.0311  -5.2254  -4.6082   1.7978   2.3816   4.2499   4.8284
     5.4317   5.9316   7.2539   8.4602   8.6388  10.4599  11.0437  12.2427
    12.8502  13.1206  13.4179  13.9322  14.0324  14.5317  14.5796  16.4994
    16.6971  16.9425  17.2469  18.2115  18.3903  19.1463  20.2406  20.6529
    20.6871  21.4461  21.5917  23.1437  23.4903  23.6238  24.3879  24.6897

     occupation numbers 
     1.0000   1.0000   1.0000   1.0000   0.0000   0.0000   0.0000   0.0000
     0.0000   0.0000   0.0000   0.0000   0.0000   0.0000   0.0000   0.0000
     0.0000   0.0000   0.0000   0.0000   0.0000   0.0000   0.0000   0.0000
     0.0000   0.0000   0.0000   0.0000   0.0000   0.0000   0.0000   0.0000
     0.0000   0.0000   0.0000   0.0000   0.0000   0.0000   0.0000   0.0000

          k = 0.3611 0.0481 0.0000 ( 11931 PWs)   bands (ev):

   -16.0890  -7.0916  -5.1756  -4.5930   1.8058   2.3695   4.2636   4.8355
     5.2977   6.0552   7.2304   8.5545   8.6831  10.5085  11.0688  11.9932
    12.7558  12.8500  13.5295  13.8488  13.8805  14.8668  15.0809  16.0557
    16.2384  17.2435  17.7215  18.2541  18.2768  19.5180  19.9655  20.3494
    20.5318  21.7017  22.0168  22.4943  23.0808  23.4367  23.9470  24.2236

     occupation numbers 
     1.0000   1.0000   1.0000   1.0000   0.0000   0.0000   0.0000   0.0000
     0.0000   0.0000   0.0000   0.0000   0.0000   0.0000   0.0000   0.0000
     0.0000   0.0000   0.0000   0.0000   0.0000   0.0000   0.0000   0.0000
     0.0000   0.0000   0.0000   0.0000   0.0000   0.0000   0.0000   0.0000
     0.0000   0.0000   0.0000   0.0000   0.0000   0.0000   0.0000   0.0000

          k = 0.3611 0.1123 0.0000 ( 11929 PWs)   bands (ev):

   -16.0373  -7.3326  -5.0001  -4.5187   1.8497   2.3092   4.3075   4.8861
     5.0355   6.3490   7.1863   8.8286   8.8987  10.6830  11.1770  11.4237
    12.1743  12.3041  13.1977  13.3420  14.9022  15.0529  15.3873  15.8222
    16.3095  17.3764  18.2170  18.7964  18.8746  19.1365  19.4695  19.9023
    20.3207  21.0607  21.5121  21.9415  22.5347  23.2249  23.5920  23.9301

     occupation numbers 
     1.0000   1.0000   1.0000   1.0000   0.0000   0.0000   0.0000   0.0000
     0.0000   0.0000   0.0000   0.0000   0.0000   0.0000   0.0000   0.0000
     0.0000   0.0000   0.0000   0.0000   0.0000   0.0000   0.0000   0.0000
     0.0000   0.0000   0.0000   0.0000   0.0000   0.0000   0.0000   0.0000
     0.0000   0.0000   0.0000   0.0000   0.0000   0.0000   0.0000   0.0000

          k = 0.3611 0.1764 0.0000 ( 11917 PWs)   bands (ev):

   -15.9498  -7.6204  -4.8729  -4.3920   1.9537   2.2088   4.3293   5.0220
     5.0470   6.6130   7.2192   8.9186   9.1853  10.4691  11.2413  11.4676
    11.5961  11.6775  12.8661  13.2578  14.1820  14.7023  16.1349  16.5091
    17.4418  17.7335  17.7867  18.6213  18.8007  18.9274  19.2026  19.4392
    19.9278  20.2627  21.1381  21.3351  22.4041  22.6470  23.2370  23.8397

     occupation numbers 
     1.0000   1.0000   1.0000   1.0000   0.0000   0.0000   0.0000   0.0000
     0.0000   0.0000   0.0000   0.0000   0.0000   0.0000   0.0000   0.0000
     0.0000   0.0000   0.0000   0.0000   0.0000   0.0000   0.0000   0.0000
     0.0000   0.0000   0.0000   0.0000   0.0000   0.0000   0.0000   0.0000
     0.0000   0.0000   0.0000   0.0000   0.0000   0.0000   0.0000   0.0000

          k = 0.4167 0.2726 0.0000 ( 11908 PWs)   bands (ev):

   -15.6566  -8.2375  -4.9899  -3.9502   1.8564   2.4835   4.5804   5.8044
     6.0429   7.1559   7.4330   8.5193   9.1639   9.3861  10.0208  10.7201
    11.1650  12.2851  12.3144  12.7335  13.8631  14.6991  15.9710  15.9883
    16.9519  17.0368  17.4343  17.6365  18.1293  18.9494  19.1105  19.7885
    20.0849  20.3022  20.9603  21.0872  21.5818  22.2977  22.3928  23.1826

     occupation numbers 
     1.0000   1.0000   1.0000   1.0000   0.0000   0.0000   0.0000   0.0000
     0.0000   0.0000   0.0000   0.0000   0.0000   0.0000   0.0000   0.0000
     0.0000   0.0000   0.0000   0.0000   0.0000   0.0000   0.0000   0.0000
     0.0000   0.0000   0.0000   0.0000   0.0000   0.0000   0.0000   0.0000
     0.0000   0.0000   0.0000   0.0000   0.0000   0.0000   0.0000   0.0000

          k = 0.4167 0.3368 0.0000 ( 11927 PWs)   bands (ev):

   -15.5770  -8.2863  -5.2450  -3.8274   1.8303   2.8161   4.7605   6.0111
     6.4550   7.3002   7.4764   8.3234   8.8092   9.2167   9.8066  10.7707
    11.0328  11.9537  12.4143  12.6306  14.5319  14.6379  15.0893  15.2311
    15.9215  16.0878  16.8110  17.7185  18.4831  18.9229  19.2859  20.2791
    20.6325  20.8636  21.1349  21.5059  21.6534  22.5906  22.7647  23.0278

     occupation numbers 
     1.0000   1.0000   1.0000   1.0000   0.0000   0.0000   0.0000   0.0000
     0.0000   0.0000   0.0000   0.0000   0.0000   0.0000   0.0000   0.0000
     0.0000   0.0000   0.0000   0.0000   0.0000   0.0000   0.0000   0.0000
     0.0000   0.0000   0.0000   0.0000   0.0000   0.0000   0.0000   0.0000
     0.0000   0.0000   0.0000   0.0000   0.0000   0.0000   0.0000   0.0000

          k = 0.4167 0.4009 0.0000 ( 11925 PWs)   bands (ev):

   -15.5080  -8.2103  -5.6667  -3.7230   1.9144   3.3077   4.9299   5.9111
     6.8334   7.5778   7.7118   8.2088   8.3073   9.2384   9.9087  10.7290
    10.9422  11.6090  12.4464  12.6776  13.4546  13.9879  14.5680  15.3372
    15.4770  16.0855  16.5596  16.6271  17.3720  19.3336  19.6048  21.0183
    21.3819  21.3855  21.6980  21.7714  22.2748  22.2833  22.7179  23.0667

     occupation numbers 
     1.0000   1.0000   1.0000   1.0000   0.0000   0.0000   0.0000   0.0000
     0.0000   0.0000   0.0000   0.0000   0.0000   0.0000   0.0000   0.0000
     0.0000   0.0000   0.0000   0.0000   0.0000   0.0000   0.0000   0.0000
     0.0000   0.0000   0.0000   0.0000   0.0000   0.0000   0.0000   0.0000
     0.0000   0.0000   0.0000   0.0000   0.0000   0.0000   0.0000   0.0000

          k = 0.4167 0.4651 0.0000 ( 11951 PWs)   bands (ev):

   -15.4568  -8.0198  -6.1573  -3.6478   2.0879   3.8103   5.0873   5.5282
     7.0831   7.7499   7.8141   8.4201   8.4407   9.3669   9.9737  10.3426
    11.1921  11.5170  12.2546  12.2730  12.5981  13.3917  13.4490  15.3823
    15.6980  15.7658  16.0794  16.8284  16.8662  19.1493  19.9522  20.4160
    20.9815  21.7070  22.0046  22.1682  22.9348  22.9371  23.7291  24.5700

     occupation numbers 
     1.0000   1.0000   1.0000   1.0000   0.0000   0.0000   0.0000   0.0000
     0.0000   0.0000   0.0000   0.0000   0.0000   0.0000   0.0000   0.0000
     0.0000   0.0000   0.0000   0.0000   0.0000   0.0000   0.0000   0.0000
     0.0000   0.0000   0.0000   0.0000   0.0000   0.0000   0.0000   0.0000
     0.0000   0.0000   0.0000   0.0000   0.0000   0.0000   0.0000   0.0000

          k = 0.4167 0.5292 0.0000 ( 11965 PWs)   bands (ev):

   -15.4274  -7.7730  -6.5918  -3.6061   2.2679   4.1278   5.1590   5.2726
     7.1565   7.5607   7.9064   8.9081   9.0157   9.4407  10.0644  10.2438
    11.0672  11.0947  11.6567  11.9110  12.3603  13.3066  13.3471  14.5335
    14.8028  15.8829  16.0724  17.4914  17.5661  18.6418  18.9903  20.4814
    21.1614  21.8955  22.1787  22.8159  23.0229  23.5017  24.6821  24.9239

     occupation numbers 
     1.0000   1.0000   1.0000   1.0000   0.0000   0.0000   0.0000   0.0000
     0.0000   0.0000   0.0000   0.0000   0.0000   0.0000   0.0000   0.0000
     0.0000   0.0000   0.0000   0.0000   0.0000   0.0000   0.0000   0.0000
     0.0000   0.0000   0.0000   0.0000   0.0000   0.0000   0.0000   0.0000
     0.0000   0.0000   0.0000   0.0000   0.0000   0.0000   0.0000   0.0000

          k = 0.4167 0.5934 0.0000 ( 11956 PWs)   bands (ev):

   -15.4215  -7.6880  -6.7161  -3.5978   2.3162   4.1882   5.0671   5.3338
     7.1618   7.5206   7.9190   8.9812   9.1952   9.5825  10.2332  10.2333
    10.6886  10.8566  11.6676  12.0478  12.0740  13.2564  13.7234  14.3184
    14.3302  15.8683  16.1665  17.7773  17.9176  18.4409  18.4838  20.5100
    21.3539  21.9346  22.0598  23.0142  23.2212  23.7624  24.2435  24.6096

     occupation numbers 
     1.0000   1.0000   1.0000   1.0000   0.0000   0.0000   0.0000   0.0000
     0.0000   0.0000   0.0000   0.0000   0.0000   0.0000   0.0000   0.0000
     0.0000   0.0000   0.0000   0.0000   0.0000   0.0000   0.0000   0.0000
     0.0000   0.0000   0.0000   0.0000   0.0000   0.0000   0.0000   0.0000
     0.0000   0.0000   0.0000   0.0000   0.0000   0.0000   0.0000   0.0000

          k = 0.4167 0.6575 0.0000 ( 11951 PWs)   bands (ev):

   -15.4392  -7.8957  -6.3923  -3.6227   2.1852   4.0017   5.1799   5.3231
     7.1362   7.6399   7.8732   8.6896   8.7254   9.4035   9.9937  10.2308
    11.3108  11.4073  11.8040  11.9090  12.6717  13.1241  13.3480  14.9046
    15.3305  15.9118  15.9237  17.1190  17.2350  18.9088  19.5249  20.4227
    21.0013  21.8162  22.1580  22.5134  22.9407  23.1942  24.5695  25.1035

     occupation numbers 
     1.0000   1.0000   1.0000   1.0000   0.0000   0.0000   0.0000   0.0000
     0.0000   0.0000   0.0000   0.0000   0.0000   0.0000   0.0000   0.0000
     0.0000   0.0000   0.0000   0.0000   0.0000   0.0000   0.0000   0.0000
     0.0000   0.0000   0.0000   0.0000   0.0000   0.0000   0.0000   0.0000
     0.0000   0.0000   0.0000   0.0000   0.0000   0.0000   0.0000   0.0000

          k = 0.4167 0.7217 0.0000 ( 11941 PWs)   bands (ev):

   -15.4798  -8.1276  -5.9101  -3.6813   1.9934   3.5702   5.0061   5.7376
     6.9816   7.7187   7.8252   8.2192   8.2657   9.2981   9.9554  10.5507
    11.0274  11.5518  12.4575  12.6072  12.8459  13.5577  13.9860  15.5693
    15.6495  15.9562  16.4134  16.4862  16.8815  19.2946  19.8953  20.7703
    21.1380  21.5893  21.8266  21.8501  22.7168  22.7686  23.0003  23.8325

     occupation numbers 
     1.0000   1.0000   1.0000   1.0000   0.0000   0.0000   0.0000   0.0000
     0.0000   0.0000   0.0000   0.0000   0.0000   0.0000   0.0000   0.0000
     0.0000   0.0000   0.0000   0.0000   0.0000   0.0000   0.0000   0.0000
     0.0000   0.0000   0.0000   0.0000   0.0000   0.0000   0.0000   0.0000
     0.0000   0.0000   0.0000   0.0000   0.0000   0.0000   0.0000   0.0000

          k = 0.4167 0.7858 0.0000 ( 11924 PWs)   bands (ev):

   -15.5406  -8.2638  -5.4407  -3.7720   1.8587   3.0491   4.8494   6.0096
     6.6534   7.4253   7.5617   8.2432   8.5457   9.2082   9.8417  10.7911
    10.9544  11.7514  12.5242  12.5735  14.0714  14.5620  14.9914  15.0790
    15.3961  15.9920  16.7150  17.1592  17.9870  19.2380  19.3100  20.7418
    21.2217  21.3024  21.4071  21.5803  22.0605  22.1789  22.5134  22.9783

     occupation numbers 
     1.0000   1.0000   1.0000   1.0000   0.0000   0.0000   0.0000   0.0000
     0.0000   0.0000   0.0000   0.0000   0.0000   0.0000   0.0000   0.0000
     0.0000   0.0000   0.0000   0.0000   0.0000   0.0000   0.0000   0.0000
     0.0000   0.0000   0.0000   0.0000   0.0000   0.0000   0.0000   0.0000
     0.0000   0.0000   0.0000   0.0000   0.0000   0.0000   0.0000   0.0000

          k = 0.4167-0.3047 0.0000 ( 11909 PWs)   bands (ev):

   -15.6161  -8.2772  -5.0915  -3.8874   1.8301   2.6244   4.6673   5.9300
     6.2482   7.2137   7.4467   8.4199   9.0267   9.2737   9.8664  10.7357
    11.1223  12.1604  12.2850  12.7017  14.1642  14.7937  15.4125  15.7121
    16.4305  16.5778  16.9510  18.1006  18.1570  19.2837  19.3036  19.7322
    20.0521  20.4475  21.0534  21.3947  21.4954  22.5425  22.8114  23.0870

     occupation numbers 
     1.0000   1.0000   1.0000   1.0000   0.0000   0.0000   0.0000   0.0000
     0.0000   0.0000   0.0000   0.0000   0.0000   0.0000   0.0000   0.0000
     0.0000   0.0000   0.0000   0.0000   0.0000   0.0000   0.0000   0.0000
     0.0000   0.0000   0.0000   0.0000   0.0000   0.0000   0.0000   0.0000
     0.0000   0.0000   0.0000   0.0000   0.0000   0.0000   0.0000   0.0000

          k = 0.4167-0.2406 0.0000 ( 11926 PWs)   bands (ev):

   -15.6974  -8.1691  -4.9459  -4.0134   1.9058   2.3955   4.5134   5.6677
     5.8478   7.1085   7.4065   8.6234   9.2440   9.5491  10.1638  10.7367
    11.1840  12.3005  12.4636  12.8386  13.6608  14.5875  16.1675  16.3499
    16.9638  17.4502  17.5954  17.9098  18.1625  18.2896  18.9318  19.7628
    20.4409  20.6087  20.6672  20.6967  21.8313  22.2147  22.2965  23.3346

     occupation numbers 
     1.0000   1.0000   1.0000   1.0000   0.0000   0.0000   0.0000   0.0000
     0.0000   0.0000   0.0000   0.0000   0.0000   0.0000   0.0000   0.0000
     0.0000   0.0000   0.0000   0.0000   0.0000   0.0000   0.0000   0.0000
     0.0000   0.0000   0.0000   0.0000   0.0000   0.0000   0.0000   0.0000
     0.0000   0.0000   0.0000   0.0000   0.0000   0.0000   0.0000   0.0000

          k = 0.4167-0.1764 0.0000 ( 11923 PWs)   bands (ev):

   -15.7739  -7.9597  -5.0251  -4.1320   2.0514   2.3472   4.4929   5.4333
     5.5151   6.9871   7.2998   8.8678   9.1508   9.9477  10.3216  10.8781
    11.4200  11.9277  13.0566  13.2271  13.7250  14.4422  15.3928  15.9735
    16.7022  17.1373  17.6964  18.3585  18.4008  19.2402  19.3729  19.6742
    19.8092  20.0328  21.3219  21.4028  22.0036  22.8807  23.1075  23.7807

     occupation numbers 
     1.0000   1.0000   1.0000   1.0000   0.0000   0.0000   0.0000   0.0000
     0.0000   0.0000   0.0000   0.0000   0.0000   0.0000   0.0000   0.0000
     0.0000   0.0000   0.0000   0.0000   0.0000   0.0000   0.0000   0.0000
     0.0000   0.0000   0.0000   0.0000   0.0000   0.0000   0.0000   0.0000
     0.0000   0.0000   0.0000   0.0000   0.0000   0.0000   0.0000   0.0000

          k = 0.4167-0.1123 0.0000 ( 11926 PWs)   bands (ev):

   -15.8349  -7.6926  -5.2596  -4.2261   2.2115   2.3738   4.6569   5.2959
     5.2974   6.8007   7.1778   8.6928   9.0997  10.2319  10.6894  11.0850
    11.7389  11.8583  13.3769  13.4888  14.1749  14.5122  14.7644  14.9357
    15.4085  17.1049  18.0153  18.2929  18.5832  18.9704  19.0599  20.0635
    20.5419  21.3727  21.7589  21.8684  22.5098  22.9376  23.4256  23.9109

     occupation numbers 
     1.0000   1.0000   1.0000   1.0000   0.0000   0.0000   0.0000   0.0000
     0.0000   0.0000   0.0000   0.0000   0.0000   0.0000   0.0000   0.0000
     0.0000   0.0000   0.0000   0.0000   0.0000   0.0000   0.0000   0.0000
     0.0000   0.0000   0.0000   0.0000   0.0000   0.0000   0.0000   0.0000
     0.0000   0.0000   0.0000   0.0000   0.0000   0.0000   0.0000   0.0000

          k = 0.4167-0.0481 0.0000 ( 11939 PWs)   bands (ev):

   -15.8718  -7.4562  -5.5034  -4.2827   2.3255   2.3941   4.8525   5.2527
     5.2603   6.5877   7.0992   8.2918   9.1831  10.2153  10.9794  11.5078
    12.2572  12.4539  12.8267  13.5239  13.5858  14.2073  14.3039  15.3841
    15.4728  16.5224  16.9377  18.5785  18.9271  19.4242  19.4534  19.9768
    20.7105  21.0584  21.4543  22.4310  23.4530  23.4818  24.3257  24.4537

     occupation numbers 
     1.0000   1.0000   1.0000   1.0000   0.0000   0.0000   0.0000   0.0000
     0.0000   0.0000   0.0000   0.0000   0.0000   0.0000   0.0000   0.0000
     0.0000   0.0000   0.0000   0.0000   0.0000   0.0000   0.0000   0.0000
     0.0000   0.0000   0.0000   0.0000   0.0000   0.0000   0.0000   0.0000
     0.0000   0.0000   0.0000   0.0000   0.0000   0.0000   0.0000   0.0000

          k = 0.4167 0.0160 0.0000 ( 11932 PWs)   bands (ev):

   -15.8795  -7.3951  -5.5683  -4.2945   2.3507   2.3974   4.8841   5.2486
     5.2969   6.5200   7.0834   8.1987   9.1823  10.1902  11.0296  11.8178
    12.4113  12.6315  12.8589  13.1161  13.3380  14.0284  14.2644  15.6809
    15.9190  16.2120  16.4111  18.9131  18.9192  19.3241  19.8321  20.0211
    20.4695  20.9462  21.0710  22.5521  23.6547  23.9973  24.6947  25.2155

     occupation numbers 
     1.0000   1.0000   1.0000   1.0000   0.0000   0.0000   0.0000   0.0000
     0.0000   0.0000   0.0000   0.0000   0.0000   0.0000   0.0000   0.0000
     0.0000   0.0000   0.0000   0.0000   0.0000   0.0000   0.0000   0.0000
     0.0000   0.0000   0.0000   0.0000   0.0000   0.0000   0.0000   0.0000
     0.0000   0.0000   0.0000   0.0000   0.0000   0.0000   0.0000   0.0000

          k = 0.4167 0.0802 0.0000 ( 11934 PWs)   bands (ev):

   -15.8568  -7.5624  -5.3919  -4.2597   2.2777   2.3865   4.7709   5.2497
     5.2665   6.6910   7.1310   8.4647   9.1626  10.2473  10.8662  11.2462
    11.9550  12.1040  13.2030  13.6514  13.7975  14.3955  14.7767  15.0041
    15.1031  16.8648  17.4879  18.3501  18.8683  19.1239  19.1615  20.2942
    20.5148  21.2711  21.9945  22.1969  22.8958  22.9545  23.8084  24.0609

     occupation numbers 
     1.0000   1.0000   1.0000   1.0000   0.0000   0.0000   0.0000   0.0000
     0.0000   0.0000   0.0000   0.0000   0.0000   0.0000   0.0000   0.0000
     0.0000   0.0000   0.0000   0.0000   0.0000   0.0000   0.0000   0.0000
     0.0000   0.0000   0.0000   0.0000   0.0000   0.0000   0.0000   0.0000
     0.0000   0.0000   0.0000   0.0000   0.0000   0.0000   0.0000   0.0000

          k = 0.4167 0.1443 0.0000 ( 11928 PWs)   bands (ev):

   -15.8070  -7.8293  -5.1306  -4.1830   2.1336   2.3582   4.5547   5.3520
     5.3882   6.9016   7.2361   8.9400   8.9951  10.1241  10.4874  10.9825
    11.5747  11.8000  13.2838  13.3608  14.0764  14.4623  14.8320  15.4739
    16.0408  17.1548  18.0399  18.3549  18.7013  18.9620  19.0267  19.6691
    20.3972  20.8285  21.4578  21.5203  22.3081  23.1703  23.2331  23.8633

     occupation numbers 
     1.0000   1.0000   1.0000   1.0000   0.0000   0.0000   0.0000   0.0000
     0.0000   0.0000   0.0000   0.0000   0.0000   0.0000   0.0000   0.0000
     0.0000   0.0000   0.0000   0.0000   0.0000   0.0000   0.0000   0.0000
     0.0000   0.0000   0.0000   0.0000   0.0000   0.0000   0.0000   0.0000
     0.0000   0.0000   0.0000   0.0000   0.0000   0.0000   0.0000   0.0000

          k = 0.4167 0.2085 0.0000 ( 11921 PWs)   bands (ev):

   -15.7369  -8.0750  -4.9597  -4.0747   1.9730   2.3544   4.4806   5.5402
     5.6700   7.0553   7.3600   8.7396   9.2567   9.7450  10.2334  10.7900
    11.2728  12.1316  12.7593  13.0314  13.5928  14.4896  15.9896  16.2227
    17.1453  17.3132  17.5677  17.8536  18.2393  19.0171  19.1290  19.6205
    19.9684  20.1480  21.0703  21.0938  21.8419  22.4934  22.6697  23.5011

     occupation numbers 
     1.0000   1.0000   1.0000   1.0000   0.0000   0.0000   0.0000   0.0000
     0.0000   0.0000   0.0000   0.0000   0.0000   0.0000   0.0000   0.0000
     0.0000   0.0000   0.0000   0.0000   0.0000   0.0000   0.0000   0.0000
     0.0000   0.0000   0.0000   0.0000   0.0000   0.0000   0.0000   0.0000
     0.0000   0.0000   0.0000   0.0000   0.0000   0.0000   0.0000   0.0000

          k = 0.4722 0.3047 0.0000 ( 11928 PWs)   bands (ev):

   -15.5708  -8.4063  -5.0207  -3.8135   1.7177   2.5993   4.7721   6.1515
     6.5364   7.3230   7.6206   7.9487   8.6100   9.0916  10.3937  10.7066
    10.8891  11.6207  12.2972  12.5835  14.4638  15.0431  15.4096  16.0317
    16.5344  16.7750  17.1937  17.6177  18.0481  18.8658  19.0827  19.8803
    20.2832  20.4920  21.1169  21.2617  21.3284  21.7302  22.1135  22.4956

     occupation numbers 
     1.0000   1.0000   1.0000   1.0000   0.0000   0.0000   0.0000   0.0000
     0.0000   0.0000   0.0000   0.0000   0.0000   0.0000   0.0000   0.0000
     0.0000   0.0000   0.0000   0.0000   0.0000   0.0000   0.0000   0.0000
     0.0000   0.0000   0.0000   0.0000   0.0000   0.0000   0.0000   0.0000
     0.0000   0.0000   0.0000   0.0000   0.0000   0.0000   0.0000   0.0000

          k = 0.4722 0.3689 0.0000 ( 11923 PWs)   bands (ev):

   -15.5486  -8.3404  -5.2581  -3.7816   1.7854   2.8627   4.8252   6.0980
     6.6391   7.4095   7.6695   8.0376   8.4580   9.1414  10.0626  10.7569
    10.7902  12.0888  12.2936  12.3995  14.6812  14.7579  15.2452  15.2602
    15.7385  15.9113  16.5742  17.6748  18.4555  18.9138  19.3207  20.2729
    20.7094  21.0124  21.2256  21.4920  21.5503  22.3503  22.5397  22.9940

     occupation numbers 
     1.0000   1.0000   1.0000   1.0000   0.0000   0.0000   0.0000   0.0000
     0.0000   0.0000   0.0000   0.0000   0.0000   0.0000   0.0000   0.0000
     0.0000   0.0000   0.0000   0.0000   0.0000   0.0000   0.0000   0.0000
     0.0000   0.0000   0.0000   0.0000   0.0000   0.0000   0.0000   0.0000
     0.0000   0.0000   0.0000   0.0000   0.0000   0.0000   0.0000   0.0000

          k = 0.4722 0.4330 0.0000 ( 11933 PWs)   bands (ev):

   -15.5346  -8.1628  -5.6476  -3.7660   1.9508   3.2409   4.8899   5.8989
     6.6268   7.3727   7.4849   8.4651   8.7366   9.3250   9.6934  10.8175
    11.1562  11.4134  12.7046  12.7676  13.4731  14.0003  14.5377  15.0990
    15.2611  16.3235  16.7073  16.9412  17.3727  19.2916  19.6347  20.9486
    21.1381  21.1398  21.8288  21.8930  22.3179  22.5002  22.8291  23.3062

     occupation numbers 
     1.0000   1.0000   1.0000   1.0000   0.0000   0.0000   0.0000   0.0000
     0.0000   0.0000   0.0000   0.0000   0.0000   0.0000   0.0000   0.0000
     0.0000   0.0000   0.0000   0.0000   0.0000   0.0000   0.0000   0.0000
     0.0000   0.0000   0.0000   0.0000   0.0000   0.0000   0.0000   0.0000
     0.0000   0.0000   0.0000   0.0000   0.0000   0.0000   0.0000   0.0000

          k = 0.4722 0.4972 0.0000 ( 11953 PWs)   bands (ev):

   -15.5277  -7.9193  -6.0665  -3.7614   2.1491   3.5407   5.0544   5.6648
     6.5156   6.9972   7.6410   8.8139   9.0285   9.7417   9.8298  10.7013
    11.1145  11.4701  12.2426  12.6338  13.1919  13.4454  13.6146  15.0748
    15.1083  15.8106  16.1847  17.4878  17.6775  19.1997  19.8806  20.3894
    20.5038  21.2747  22.0184  22.1287  23.1202  23.5089  23.9591  24.5815

     occupation numbers 
     1.0000   1.0000   1.0000   1.0000   0.0000   0.0000   0.0000   0.0000
     0.0000   0.0000   0.0000   0.0000   0.0000   0.0000   0.0000   0.0000
     0.0000   0.0000   0.0000   0.0000   0.0000   0.0000   0.0000   0.0000
     0.0000   0.0000   0.0000   0.0000   0.0000   0.0000   0.0000   0.0000
     0.0000   0.0000   0.0000   0.0000   0.0000   0.0000   0.0000   0.0000

          k = 0.4722 0.5613 0.0000 ( 11971 PWs)   bands (ev):

   -15.5252  -7.7381  -6.3323  -3.7610   2.2711   3.6599   5.2199   5.5198
     6.4382   6.8129   7.7074   8.9407   9.0320  10.1610  10.4516  10.7133
    11.0482  11.1799  11.6184  12.3244  12.5793  13.8620  14.2207  14.3427
    14.6374  15.5329  15.9148  18.3565  18.5584  18.7842  19.0663  20.2307
    20.5274  21.3644  21.5015  22.5724  23.4124  24.2626  24.8282  24.9827

     occupation numbers 
     1.0000   1.0000   1.0000   1.0000   0.0000   0.0000   0.0000   0.0000
     0.0000   0.0000   0.0000   0.0000   0.0000   0.0000   0.0000   0.0000
     0.0000   0.0000   0.0000   0.0000   0.0000   0.0000   0.0000   0.0000
     0.0000   0.0000   0.0000   0.0000   0.0000   0.0000   0.0000   0.0000
     0.0000   0.0000   0.0000   0.0000   0.0000   0.0000   0.0000   0.0000

          k = 0.4722 0.6255 0.0000 ( 11951 PWs)   bands (ev):

   -15.5260  -7.8076  -6.2340  -3.7610   2.2272   3.6220   5.1543   5.5722
     6.4666   6.8752   7.6873   8.9048   9.0395   9.9905  10.1371  10.6381
    11.1455  11.4066  11.8070  12.4036  12.8641  13.6040  13.8462  14.7326
    14.9162  15.7549  15.8509  17.9614  18.1023  19.0370  19.5413  20.2515
    20.4353  21.3369  21.7771  22.3957  23.2664  23.9457  24.6751  25.0754

     occupation numbers 
     1.0000   1.0000   1.0000   1.0000   0.0000   0.0000   0.0000   0.0000
     0.0000   0.0000   0.0000   0.0000   0.0000   0.0000   0.0000   0.0000
     0.0000   0.0000   0.0000   0.0000   0.0000   0.0000   0.0000   0.0000
     0.0000   0.0000   0.0000   0.0000   0.0000   0.0000   0.0000   0.0000
     0.0000   0.0000   0.0000   0.0000   0.0000   0.0000   0.0000   0.0000

          k = 0.4722 0.6896 0.0000 ( 11938 PWs)   bands (ev):

   -15.5304  -8.0442  -5.8626  -3.7628   2.0518   3.4115   4.9586   5.7793
     6.5739   7.1702   7.5679   8.6630   8.9319   9.5061   9.6672  10.8015
    11.1690  11.3509  12.7113  12.8277  13.1236  13.5496  13.9732  15.1761
    15.2109  16.0425  16.7230  16.9916  17.3062  19.2655  19.8749  20.7565
    20.7743  21.1668  21.9179  22.0484  22.8926  22.9709  23.3827  23.8597

     occupation numbers 
     1.0000   1.0000   1.0000   1.0000   0.0000   0.0000   0.0000   0.0000
     0.0000   0.0000   0.0000   0.0000   0.0000   0.0000   0.0000   0.0000
     0.0000   0.0000   0.0000   0.0000   0.0000   0.0000   0.0000   0.0000
     0.0000   0.0000   0.0000   0.0000   0.0000   0.0000   0.0000   0.0000
     0.0000   0.0000   0.0000   0.0000   0.0000   0.0000   0.0000   0.0000

          k = 0.4722 0.7538 0.0000 ( 11924 PWs)   bands (ev):

   -15.5406  -8.2638  -5.4407  -3.7720   1.8587   3.0491   4.8494   6.0096
     6.6534   7.4253   7.5617   8.2432   8.5457   9.2082   9.8417  10.7911
    10.9544  11.7514  12.5242  12.5735  14.0714  14.5620  14.9914  15.0790
    15.3961  15.9920  16.7150  17.1592  17.9870  19.2380  19.3100  20.7418
    21.2217  21.3024  21.4071  21.5803  22.0605  22.1789  22.5134  22.9783

     occupation numbers 
     1.0000   1.0000   1.0000   1.0000   0.0000   0.0000   0.0000   0.0000
     0.0000   0.0000   0.0000   0.0000   0.0000   0.0000   0.0000   0.0000
     0.0000   0.0000   0.0000   0.0000   0.0000   0.0000   0.0000   0.0000
     0.0000   0.0000   0.0000   0.0000   0.0000   0.0000   0.0000   0.0000
     0.0000   0.0000   0.0000   0.0000   0.0000   0.0000   0.0000   0.0000

          k = 0.4722 0.8179 0.0000 ( 11912 PWs)   bands (ev):

   -15.5587  -8.3886  -5.1142  -3.7954   1.7372   2.7066   4.8027   6.1492
     6.5940   7.3958   7.6668   7.9181   8.5032   9.1059  10.2987  10.7259
    10.7262  11.9548  12.2780  12.4315  14.6348  15.0577  15.3893  15.4722
    16.1103  16.4942  16.6090  18.0489  18.0736  19.2629  19.3158  19.6893
    20.2375  20.6393  21.1583  21.2897  21.4923  22.1785  22.4402  22.8918

     occupation numbers 
     1.0000   1.0000   1.0000   1.0000   0.0000   0.0000   0.0000   0.0000
     0.0000   0.0000   0.0000   0.0000   0.0000   0.0000   0.0000   0.0000
     0.0000   0.0000   0.0000   0.0000   0.0000   0.0000   0.0000   0.0000
     0.0000   0.0000   0.0000   0.0000   0.0000   0.0000   0.0000   0.0000
     0.0000   0.0000   0.0000   0.0000   0.0000   0.0000   0.0000   0.0000

          k = 0.4722-0.2726 0.0000 ( 11930 PWs)   bands (ev):

   -15.5848  -8.3930  -4.9854  -3.8354   1.7279   2.5511   4.7328   6.1049
     6.4652   7.2387   7.5766   8.0822   8.7284   9.1021  10.3432  10.7026
    11.0666  11.5267  12.3487  12.6089  14.3004  14.9843  15.5241  16.3341
    16.7282  17.0006  17.2537  17.7856  18.0078  18.2621  19.0051  19.9711
    20.5769  20.5961  20.9065  20.9993  21.5608  21.5793  21.7350  22.6003

     occupation numbers 
     1.0000   1.0000   1.0000   1.0000   0.0000   0.0000   0.0000   0.0000
     0.0000   0.0000   0.0000   0.0000   0.0000   0.0000   0.0000   0.0000
     0.0000   0.0000   0.0000   0.0000   0.0000   0.0000   0.0000   0.0000
     0.0000   0.0000   0.0000   0.0000   0.0000   0.0000   0.0000   0.0000
     0.0000   0.0000   0.0000   0.0000   0.0000   0.0000   0.0000   0.0000

          k = 0.4722-0.2085 0.0000 ( 11909 PWs)   bands (ev):

   -15.6161  -8.2772  -5.0915  -3.8874   1.8301   2.6244   4.6673   5.9300
     6.2482   7.2137   7.4467   8.4199   9.0267   9.2737   9.8664  10.7357
    11.1223  12.1604  12.2850  12.7017  14.1642  14.7937  15.4125  15.7121
    16.4305  16.5778  16.9510  18.1006  18.1570  19.2837  19.3036  19.7322
    20.0521  20.4475  21.0534  21.3947  21.4954  22.5425  22.8114  23.0870

     occupation numbers 
     1.0000   1.0000   1.0000   1.0000   0.0000   0.0000   0.0000   0.0000
     0.0000   0.0000   0.0000   0.0000   0.0000   0.0000   0.0000   0.0000
     0.0000   0.0000   0.0000   0.0000   0.0000   0.0000   0.0000   0.0000
     0.0000   0.0000   0.0000   0.0000   0.0000   0.0000   0.0000   0.0000
     0.0000   0.0000   0.0000   0.0000   0.0000   0.0000   0.0000   0.0000

          k = 0.4722-0.1443 0.0000 ( 11930 PWs)   bands (ev):

   -15.6469  -8.0635  -5.3788  -3.9405   2.0072   2.8193   4.7206   5.7645
     5.9968   7.1717   7.2608   8.7484   9.0957   9.6952   9.7203  10.7544
    11.4276  11.6137  12.9797  13.1687  14.0034  14.4469  14.6870  14.7018
    15.3357  16.7152  17.4939  17.4992  18.0043  19.1213  19.3561  20.3333
    20.8850  21.0167  21.5518  21.6586  22.3242  22.8793  22.8967  23.4555

     occupation numbers 
     1.0000   1.0000   1.0000   1.0000   0.0000   0.0000   0.0000   0.0000
     0.0000   0.0000   0.0000   0.0000   0.0000   0.0000   0.0000   0.0000
     0.0000   0.0000   0.0000   0.0000   0.0000   0.0000   0.0000   0.0000
     0.0000   0.0000   0.0000   0.0000   0.0000   0.0000   0.0000   0.0000
     0.0000   0.0000   0.0000   0.0000   0.0000   0.0000   0.0000   0.0000

          k = 0.4722-0.0802 0.0000 ( 11948 PWs)   bands (ev):

   -15.6707  -7.8084  -5.7234  -3.9820   2.1902   2.9735   4.9503   5.6842
     5.7915   6.8218   7.2186   8.7314   9.1075  10.1904  10.3008  10.6248
    11.5473  11.6985  12.8939  13.4091  13.6156  13.6820  13.9341  14.8810
    14.9751  16.2259  16.8023  17.9755  18.2806  19.1772  19.6610  20.3421
    20.6429  20.9704  21.8388  21.9943  23.2961  23.3602  23.9801  24.0237

     occupation numbers 
     1.0000   1.0000   1.0000   1.0000   0.0000   0.0000   0.0000   0.0000
     0.0000   0.0000   0.0000   0.0000   0.0000   0.0000   0.0000   0.0000
     0.0000   0.0000   0.0000   0.0000   0.0000   0.0000   0.0000   0.0000
     0.0000   0.0000   0.0000   0.0000   0.0000   0.0000   0.0000   0.0000
     0.0000   0.0000   0.0000   0.0000   0.0000   0.0000   0.0000   0.0000

          k = 0.4722-0.0160 0.0000 ( 11977 PWs)   bands (ev):

   -15.6820  -7.6376  -5.9431  -4.0018   2.2924   3.0313   5.1849   5.6623
     5.6795   6.5939   7.1464   8.5663   9.3451  10.0847  10.8046  11.0235
    11.7213  11.9227  12.3308  12.6179  12.9773  14.0532  14.1234  14.8843
    15.2186  15.8335  15.8806  18.8412  19.1035  19.3838  19.5369  19.7785
    19.9985  20.9906  21.1572  22.2826  23.6265  24.4417  24.9040  25.5284

     occupation numbers 
     1.0000   1.0000   1.0000   1.0000   0.0000   0.0000   0.0000   0.0000
     0.0000   0.0000   0.0000   0.0000   0.0000   0.0000   0.0000   0.0000
     0.0000   0.0000   0.0000   0.0000   0.0000   0.0000   0.0000   0.0000
     0.0000   0.0000   0.0000   0.0000   0.0000   0.0000   0.0000   0.0000
     0.0000   0.0000   0.0000   0.0000   0.0000   0.0000   0.0000   0.0000

          k = 0.4722 0.0481 0.0000 ( 11952 PWs)   bands (ev):

   -15.6782  -7.7011  -5.8626  -3.9951   2.2564   3.0132   5.0889   5.6771
     5.7136   6.6776   7.1763   8.6209   9.2574  10.1614  10.6051  10.7916
    11.6950  11.8109  12.4677  12.9680  13.3593  13.8625  13.9607  14.9880
    15.0241  15.9592  16.2692  18.4448  18.7031  19.3180  19.6392  19.9796
    20.3061  21.0988  21.3913  22.1495  23.5284  24.0625  24.3363  24.8240

     occupation numbers 
     1.0000   1.0000   1.0000   1.0000   0.0000   0.0000   0.0000   0.0000
     0.0000   0.0000   0.0000   0.0000   0.0000   0.0000   0.0000   0.0000
     0.0000   0.0000   0.0000   0.0000   0.0000   0.0000   0.0000   0.0000
     0.0000   0.0000   0.0000   0.0000   0.0000   0.0000   0.0000   0.0000
     0.0000   0.0000   0.0000   0.0000   0.0000   0.0000   0.0000   0.0000

          k = 0.4722 0.1123 0.0000 ( 11941 PWs)   bands (ev):

   -15.6601  -7.9354  -5.5538  -3.9635   2.1033   2.9085   4.8173   5.7120
     5.8864   6.9960   7.2517   8.8966   8.9282   9.9765   9.9930  10.6853
    11.4912  11.5748  13.2513  13.3912  13.4868  14.0524  14.3899  14.7534
    14.9562  16.5889  17.3787  17.5695  17.8816  19.1079  19.6067  20.5707
    20.6979  20.9943  21.9588  21.9979  22.5770  23.0549  23.4014  23.5423

     occupation numbers 
     1.0000   1.0000   1.0000   1.0000   0.0000   0.0000   0.0000   0.0000
     0.0000   0.0000   0.0000   0.0000   0.0000   0.0000   0.0000   0.0000
     0.0000   0.0000   0.0000   0.0000   0.0000   0.0000   0.0000   0.0000
     0.0000   0.0000   0.0000   0.0000   0.0000   0.0000   0.0000   0.0000
     0.0000   0.0000   0.0000   0.0000   0.0000   0.0000   0.0000   0.0000

          k = 0.4722 0.1764 0.0000 ( 11925 PWs)   bands (ev):

   -15.6319  -8.1802  -5.2190  -3.9147   1.9129   2.7176   4.6720   5.8395
     6.1198   7.2433   7.3269   8.5814   9.1766   9.4679   9.6240  10.7576
    11.2667  11.8728  12.6660  12.9138  14.2555  14.5255  14.9398  15.2712
    15.9365  16.5043  17.1780  17.8206  18.5352  18.9417  19.2163  20.1929
    20.5305  20.6987  21.1470  21.4730  21.9009  22.9159  22.9842  23.1356

     occupation numbers 
     1.0000   1.0000   1.0000   1.0000   0.0000   0.0000   0.0000   0.0000
     0.0000   0.0000   0.0000   0.0000   0.0000   0.0000   0.0000   0.0000
     0.0000   0.0000   0.0000   0.0000   0.0000   0.0000   0.0000   0.0000
     0.0000   0.0000   0.0000   0.0000   0.0000   0.0000   0.0000   0.0000
     0.0000   0.0000   0.0000   0.0000   0.0000   0.0000   0.0000   0.0000

          k = 0.4722 0.2406 0.0000 ( 11924 PWs)   bands (ev):

   -15.6001  -8.3493  -5.0104  -3.8605   1.7666   2.5627   4.6930   6.0243
     6.3685   7.2019   7.5264   8.2510   8.8628   9.1549  10.1562  10.7139
    11.0471  11.8659  12.3642  12.5740  14.1890  14.9107  15.6846  15.9889
    16.7200  16.8560  17.2693  17.6140  18.0731  18.8950  19.0931  19.8464
    20.2080  20.4860  20.9579  21.1720  21.3709  22.0146  22.2032  22.7988

     occupation numbers 
     1.0000   1.0000   1.0000   1.0000   0.0000   0.0000   0.0000   0.0000
     0.0000   0.0000   0.0000   0.0000   0.0000   0.0000   0.0000   0.0000
     0.0000   0.0000   0.0000   0.0000   0.0000   0.0000   0.0000   0.0000
     0.0000   0.0000   0.0000   0.0000   0.0000   0.0000   0.0000   0.0000
     0.0000   0.0000   0.0000   0.0000   0.0000   0.0000   0.0000   0.0000

          k =-0.4722-0.2406 0.0000 ( 11924 PWs)   bands (ev):

   -15.6001  -8.3493  -5.0104  -3.8605   1.7666   2.5627   4.6930   6.0243
     6.3685   7.2019   7.5264   8.2510   8.8628   9.1549  10.1562  10.7139
    11.0471  11.8659  12.3642  12.5740  14.1890  14.9107  15.6846  15.9889
    16.7200  16.8560  17.2693  17.6140  18.0731  18.8950  19.0931  19.8464
    20.2080  20.4860  20.9579  21.1720  21.3709  22.0146  22.2032  22.7988

     occupation numbers 
     1.0000   1.0000   1.0000   1.0000   0.0000   0.0000   0.0000   0.0000
     0.0000   0.0000   0.0000   0.0000   0.0000   0.0000   0.0000   0.0000
     0.0000   0.0000   0.0000   0.0000   0.0000   0.0000   0.0000   0.0000
     0.0000   0.0000   0.0000   0.0000   0.0000   0.0000   0.0000   0.0000
     0.0000   0.0000   0.0000   0.0000   0.0000   0.0000   0.0000   0.0000

          k =-0.4722-0.1764 0.0000 ( 11925 PWs)   bands (ev):

   -15.6319  -8.1802  -5.2190  -3.9147   1.9129   2.7176   4.6720   5.8395
     6.1198   7.2433   7.3269   8.5814   9.1766   9.4679   9.6240  10.7576
    11.2667  11.8728  12.6660  12.9138  14.2555  14.5255  14.9398  15.2712
    15.9365  16.5043  17.1780  17.8206  18.5352  18.9417  19.2163  20.1929
    20.5305  20.6987  21.1470  21.4730  21.9009  22.9159  22.9842  23.1356

     occupation numbers 
     1.0000   1.0000   1.0000   1.0000   0.0000   0.0000   0.0000   0.0000
     0.0000   0.0000   0.0000   0.0000   0.0000   0.0000   0.0000   0.0000
     0.0000   0.0000   0.0000   0.0000   0.0000   0.0000   0.0000   0.0000
     0.0000   0.0000   0.0000   0.0000   0.0000   0.0000   0.0000   0.0000
     0.0000   0.0000   0.0000   0.0000   0.0000   0.0000   0.0000   0.0000

          k =-0.4722-0.1123 0.0000 ( 11941 PWs)   bands (ev):

   -15.6601  -7.9354  -5.5538  -3.9635   2.1033   2.9085   4.8173   5.7120
     5.8864   6.9960   7.2517   8.8966   8.9282   9.9765   9.9930  10.6853
    11.4912  11.5748  13.2513  13.3912  13.4868  14.0524  14.3899  14.7534
    14.9562  16.5889  17.3787  17.5695  17.8816  19.1079  19.6067  20.5707
    20.6979  20.9943  21.9588  21.9979  22.5770  23.0549  23.4014  23.5423

     occupation numbers 
     1.0000   1.0000   1.0000   1.0000   0.0000   0.0000   0.0000   0.0000
     0.0000   0.0000   0.0000   0.0000   0.0000   0.0000   0.0000   0.0000
     0.0000   0.0000   0.0000   0.0000   0.0000   0.0000   0.0000   0.0000
     0.0000   0.0000   0.0000   0.0000   0.0000   0.0000   0.0000   0.0000
     0.0000   0.0000   0.0000   0.0000   0.0000   0.0000   0.0000   0.0000

          k =-0.4722-0.0481 0.0000 ( 11952 PWs)   bands (ev):

   -15.6782  -7.7011  -5.8626  -3.9951   2.2564   3.0132   5.0889   5.6771
     5.7136   6.6776   7.1763   8.6209   9.2574  10.1614  10.6051  10.7916
    11.6950  11.8109  12.4677  12.9680  13.3593  13.8625  13.9607  14.9880
    15.0241  15.9592  16.2692  18.4448  18.7031  19.3180  19.6392  19.9796
    20.3061  21.0988  21.3913  22.1495  23.5284  24.0625  24.3363  24.8240

     occupation numbers 
     1.0000   1.0000   1.0000   1.0000   0.0000   0.0000   0.0000   0.0000
     0.0000   0.0000   0.0000   0.0000   0.0000   0.0000   0.0000   0.0000
     0.0000   0.0000   0.0000   0.0000   0.0000   0.0000   0.0000   0.0000
     0.0000   0.0000   0.0000   0.0000   0.0000   0.0000   0.0000   0.0000
     0.0000   0.0000   0.0000   0.0000   0.0000   0.0000   0.0000   0.0000

          k =-0.4722 0.0160 0.0000 ( 11977 PWs)   bands (ev):

   -15.6820  -7.6376  -5.9431  -4.0018   2.2924   3.0313   5.1849   5.6623
     5.6795   6.5939   7.1464   8.5663   9.3451  10.0847  10.8046  11.0235
    11.7213  11.9227  12.3308  12.6179  12.9773  14.0532  14.1234  14.8843
    15.2186  15.8335  15.8806  18.8412  19.1035  19.3838  19.5369  19.7785
    19.9985  20.9906  21.1572  22.2826  23.6265  24.4417  24.9040  25.5284

     occupation numbers 
     1.0000   1.0000   1.0000   1.0000   0.0000   0.0000   0.0000   0.0000
     0.0000   0.0000   0.0000   0.0000   0.0000   0.0000   0.0000   0.0000
     0.0000   0.0000   0.0000   0.0000   0.0000   0.0000   0.0000   0.0000
     0.0000   0.0000   0.0000   0.0000   0.0000   0.0000   0.0000   0.0000
     0.0000   0.0000   0.0000   0.0000   0.0000   0.0000   0.0000   0.0000

          k =-0.4722 0.0802 0.0000 ( 11948 PWs)   bands (ev):

   -15.6707  -7.8084  -5.7234  -3.9820   2.1902   2.9735   4.9503   5.6842
     5.7915   6.8218   7.2186   8.7314   9.1075  10.1904  10.3008  10.6248
    11.5473  11.6985  12.8939  13.4091  13.6156  13.6820  13.9341  14.8810
    14.9751  16.2259  16.8023  17.9755  18.2806  19.1772  19.6610  20.3421
    20.6429  20.9704  21.8388  21.9943  23.2961  23.3602  23.9801  24.0237

     occupation numbers 
     1.0000   1.0000   1.0000   1.0000   0.0000   0.0000   0.0000   0.0000
     0.0000   0.0000   0.0000   0.0000   0.0000   0.0000   0.0000   0.0000
     0.0000   0.0000   0.0000   0.0000   0.0000   0.0000   0.0000   0.0000
     0.0000   0.0000   0.0000   0.0000   0.0000   0.0000   0.0000   0.0000
     0.0000   0.0000   0.0000   0.0000   0.0000   0.0000   0.0000   0.0000

          k =-0.4722 0.1443 0.0000 ( 11930 PWs)   bands (ev):

   -15.6469  -8.0635  -5.3788  -3.9405   2.0072   2.8193   4.7206   5.7645
     5.9968   7.1717   7.2608   8.7484   9.0957   9.6952   9.7203  10.7544
    11.4276  11.6137  12.9797  13.1687  14.0034  14.4469  14.6870  14.7018
    15.3357  16.7152  17.4939  17.4992  18.0043  19.1213  19.3561  20.3333
    20.8850  21.0167  21.5518  21.6586  22.3242  22.8793  22.8967  23.4555

     occupation numbers 
     1.0000   1.0000   1.0000   1.0000   0.0000   0.0000   0.0000   0.0000
     0.0000   0.0000   0.0000   0.0000   0.0000   0.0000   0.0000   0.0000
     0.0000   0.0000   0.0000   0.0000   0.0000   0.0000   0.0000   0.0000
     0.0000   0.0000   0.0000   0.0000   0.0000   0.0000   0.0000   0.0000
     0.0000   0.0000   0.0000   0.0000   0.0000   0.0000   0.0000   0.0000

          k =-0.4722 0.2085 0.0000 ( 11909 PWs)   bands (ev):

   -15.6161  -8.2772  -5.0915  -3.8874   1.8301   2.6244   4.6673   5.9300
     6.2482   7.2137   7.4467   8.4199   9.0267   9.2737   9.8664  10.7357
    11.1223  12.1604  12.2850  12.7017  14.1642  14.7937  15.4125  15.7121
    16.4305  16.5778  16.9510  18.1006  18.1570  19.2837  19.3036  19.7322
    20.0521  20.4475  21.0534  21.3947  21.4954  22.5425  22.8114  23.0870

     occupation numbers 
     1.0000   1.0000   1.0000   1.0000   0.0000   0.0000   0.0000   0.0000
     0.0000   0.0000   0.0000   0.0000   0.0000   0.0000   0.0000   0.0000
     0.0000   0.0000   0.0000   0.0000   0.0000   0.0000   0.0000   0.0000
     0.0000   0.0000   0.0000   0.0000   0.0000   0.0000   0.0000   0.0000
     0.0000   0.0000   0.0000   0.0000   0.0000   0.0000   0.0000   0.0000

          k =-0.4722 0.2726 0.0000 ( 11930 PWs)   bands (ev):

   -15.5848  -8.3930  -4.9854  -3.8354   1.7279   2.5511   4.7328   6.1049
     6.4652   7.2387   7.5766   8.0822   8.7284   9.1021  10.3432  10.7026
    11.0666  11.5267  12.3487  12.6089  14.3004  14.9843  15.5241  16.3341
    16.7282  17.0006  17.2537  17.7856  18.0078  18.2621  19.0051  19.9711
    20.5769  20.5961  20.9065  20.9993  21.5608  21.5793  21.7350  22.6003

     occupation numbers 
     1.0000   1.0000   1.0000   1.0000   0.0000   0.0000   0.0000   0.0000
     0.0000   0.0000   0.0000   0.0000   0.0000   0.0000   0.0000   0.0000
     0.0000   0.0000   0.0000   0.0000   0.0000   0.0000   0.0000   0.0000
     0.0000   0.0000   0.0000   0.0000   0.0000   0.0000   0.0000   0.0000
     0.0000   0.0000   0.0000   0.0000   0.0000   0.0000   0.0000   0.0000

          k =-0.4722-0.8179 0.0000 ( 11912 PWs)   bands (ev):

   -15.5587  -8.3886  -5.1142  -3.7954   1.7372   2.7066   4.8027   6.1492
     6.5940   7.3958   7.6668   7.9181   8.5032   9.1059  10.2987  10.7259
    10.7262  11.9548  12.2780  12.4315  14.6348  15.0577  15.3893  15.4722
    16.1103  16.4942  16.6090  18.0489  18.0736  19.2629  19.3158  19.6893
    20.2375  20.6393  21.1583  21.2897  21.4923  22.1785  22.4402  22.8918

     occupation numbers 
     1.0000   1.0000   1.0000   1.0000   0.0000   0.0000   0.0000   0.0000
     0.0000   0.0000   0.0000   0.0000   0.0000   0.0000   0.0000   0.0000
     0.0000   0.0000   0.0000   0.0000   0.0000   0.0000   0.0000   0.0000
     0.0000   0.0000   0.0000   0.0000   0.0000   0.0000   0.0000   0.0000
     0.0000   0.0000   0.0000   0.0000   0.0000   0.0000   0.0000   0.0000

          k =-0.4722-0.7538 0.0000 ( 11924 PWs)   bands (ev):

   -15.5406  -8.2638  -5.4407  -3.7720   1.8587   3.0491   4.8494   6.0096
     6.6534   7.4253   7.5617   8.2432   8.5457   9.2082   9.8417  10.7911
    10.9544  11.7514  12.5242  12.5735  14.0714  14.5620  14.9914  15.0790
    15.3961  15.9920  16.7150  17.1592  17.9870  19.2380  19.3100  20.7418
    21.2217  21.3024  21.4071  21.5803  22.0605  22.1789  22.5134  22.9783

     occupation numbers 
     1.0000   1.0000   1.0000   1.0000   0.0000   0.0000   0.0000   0.0000
     0.0000   0.0000   0.0000   0.0000   0.0000   0.0000   0.0000   0.0000
     0.0000   0.0000   0.0000   0.0000   0.0000   0.0000   0.0000   0.0000
     0.0000   0.0000   0.0000   0.0000   0.0000   0.0000   0.0000   0.0000
     0.0000   0.0000   0.0000   0.0000   0.0000   0.0000   0.0000   0.0000

          k =-0.4722-0.6896 0.0000 ( 11938 PWs)   bands (ev):

   -15.5304  -8.0442  -5.8626  -3.7628   2.0518   3.4115   4.9586   5.7793
     6.5739   7.1702   7.5679   8.6630   8.9319   9.5061   9.6672  10.8015
    11.1690  11.3509  12.7113  12.8277  13.1236  13.5496  13.9732  15.1761
    15.2109  16.0425  16.7230  16.9916  17.3062  19.2655  19.8749  20.7565
    20.7743  21.1668  21.9179  22.0484  22.8926  22.9709  23.3827  23.8597

     occupation numbers 
     1.0000   1.0000   1.0000   1.0000   0.0000   0.0000   0.0000   0.0000
     0.0000   0.0000   0.0000   0.0000   0.0000   0.0000   0.0000   0.0000
     0.0000   0.0000   0.0000   0.0000   0.0000   0.0000   0.0000   0.0000
     0.0000   0.0000   0.0000   0.0000   0.0000   0.0000   0.0000   0.0000
     0.0000   0.0000   0.0000   0.0000   0.0000   0.0000   0.0000   0.0000

          k =-0.4722-0.6255 0.0000 ( 11951 PWs)   bands (ev):

   -15.5260  -7.8076  -6.2340  -3.7610   2.2272   3.6220   5.1543   5.5722
     6.4666   6.8752   7.6873   8.9048   9.0395   9.9905  10.1371  10.6381
    11.1455  11.4066  11.8070  12.4036  12.8641  13.6040  13.8462  14.7326
    14.9162  15.7549  15.8509  17.9614  18.1023  19.0370  19.5413  20.2515
    20.4353  21.3369  21.7771  22.3957  23.2664  23.9457  24.6751  25.0754

     occupation numbers 
     1.0000   1.0000   1.0000   1.0000   0.0000   0.0000   0.0000   0.0000
     0.0000   0.0000   0.0000   0.0000   0.0000   0.0000   0.0000   0.0000
     0.0000   0.0000   0.0000   0.0000   0.0000   0.0000   0.0000   0.0000
     0.0000   0.0000   0.0000   0.0000   0.0000   0.0000   0.0000   0.0000
     0.0000   0.0000   0.0000   0.0000   0.0000   0.0000   0.0000   0.0000

          k =-0.4722-0.5613 0.0000 ( 11971 PWs)   bands (ev):

   -15.5252  -7.7381  -6.3323  -3.7610   2.2711   3.6599   5.2199   5.5198
     6.4382   6.8129   7.7074   8.9407   9.0320  10.1610  10.4516  10.7133
    11.0482  11.1799  11.6184  12.3244  12.5793  13.8620  14.2207  14.3427
    14.6374  15.5329  15.9148  18.3565  18.5584  18.7842  19.0663  20.2307
    20.5274  21.3644  21.5015  22.5724  23.4124  24.2626  24.8282  24.9827

     occupation numbers 
     1.0000   1.0000   1.0000   1.0000   0.0000   0.0000   0.0000   0.0000
     0.0000   0.0000   0.0000   0.0000   0.0000   0.0000   0.0000   0.0000
     0.0000   0.0000   0.0000   0.0000   0.0000   0.0000   0.0000   0.0000
     0.0000   0.0000   0.0000   0.0000   0.0000   0.0000   0.0000   0.0000
     0.0000   0.0000   0.0000   0.0000   0.0000   0.0000   0.0000   0.0000

          k =-0.4722-0.4972 0.0000 ( 11953 PWs)   bands (ev):

   -15.5277  -7.9193  -6.0665  -3.7614   2.1491   3.5407   5.0544   5.6648
     6.5156   6.9972   7.6410   8.8139   9.0285   9.7417   9.8298  10.7013
    11.1145  11.4701  12.2426  12.6338  13.1919  13.4454  13.6146  15.0748
    15.1083  15.8106  16.1847  17.4878  17.6775  19.1997  19.8806  20.3894
    20.5038  21.2747  22.0184  22.1287  23.1202  23.5089  23.9591  24.5815

     occupation numbers 
     1.0000   1.0000   1.0000   1.0000   0.0000   0.0000   0.0000   0.0000
     0.0000   0.0000   0.0000   0.0000   0.0000   0.0000   0.0000   0.0000
     0.0000   0.0000   0.0000   0.0000   0.0000   0.0000   0.0000   0.0000
     0.0000   0.0000   0.0000   0.0000   0.0000   0.0000   0.0000   0.0000
     0.0000   0.0000   0.0000   0.0000   0.0000   0.0000   0.0000   0.0000

          k =-0.4722-0.4330 0.0000 ( 11933 PWs)   bands (ev):

   -15.5346  -8.1628  -5.6476  -3.7660   1.9508   3.2409   4.8899   5.8989
     6.6268   7.3727   7.4849   8.4651   8.7366   9.3250   9.6934  10.8175
    11.1562  11.4134  12.7046  12.7676  13.4731  14.0003  14.5377  15.0990
    15.2611  16.3235  16.7073  16.9412  17.3727  19.2916  19.6347  20.9486
    21.1381  21.1398  21.8288  21.8930  22.3179  22.5002  22.8291  23.3062

     occupation numbers 
     1.0000   1.0000   1.0000   1.0000   0.0000   0.0000   0.0000   0.0000
     0.0000   0.0000   0.0000   0.0000   0.0000   0.0000   0.0000   0.0000
     0.0000   0.0000   0.0000   0.0000   0.0000   0.0000   0.0000   0.0000
     0.0000   0.0000   0.0000   0.0000   0.0000   0.0000   0.0000   0.0000
     0.0000   0.0000   0.0000   0.0000   0.0000   0.0000   0.0000   0.0000

          k =-0.4722-0.3689 0.0000 ( 11923 PWs)   bands (ev):

   -15.5486  -8.3404  -5.2581  -3.7816   1.7854   2.8627   4.8252   6.0980
     6.6391   7.4095   7.6695   8.0376   8.4580   9.1414  10.0626  10.7569
    10.7902  12.0888  12.2936  12.3995  14.6812  14.7579  15.2452  15.2602
    15.7385  15.9113  16.5742  17.6748  18.4555  18.9138  19.3207  20.2729
    20.7094  21.0124  21.2256  21.4920  21.5503  22.3503  22.5397  22.9940

     occupation numbers 
     1.0000   1.0000   1.0000   1.0000   0.0000   0.0000   0.0000   0.0000
     0.0000   0.0000   0.0000   0.0000   0.0000   0.0000   0.0000   0.0000
     0.0000   0.0000   0.0000   0.0000   0.0000   0.0000   0.0000   0.0000
     0.0000   0.0000   0.0000   0.0000   0.0000   0.0000   0.0000   0.0000
     0.0000   0.0000   0.0000   0.0000   0.0000   0.0000   0.0000   0.0000

          k =-0.4722-0.3047 0.0000 ( 11928 PWs)   bands (ev):

   -15.5708  -8.4063  -5.0207  -3.8135   1.7177   2.5993   4.7721   6.1515
     6.5364   7.3230   7.6206   7.9487   8.6100   9.0916  10.3937  10.7066
    10.8891  11.6207  12.2972  12.5835  14.4638  15.0431  15.4096  16.0317
    16.5344  16.7750  17.1937  17.6177  18.0481  18.8658  19.0827  19.8803
    20.2832  20.4920  21.1169  21.2617  21.3284  21.7302  22.1135  22.4956

     occupation numbers 
     1.0000   1.0000   1.0000   1.0000   0.0000   0.0000   0.0000   0.0000
     0.0000   0.0000   0.0000   0.0000   0.0000   0.0000   0.0000   0.0000
     0.0000   0.0000   0.0000   0.0000   0.0000   0.0000   0.0000   0.0000
     0.0000   0.0000   0.0000   0.0000   0.0000   0.0000   0.0000   0.0000
     0.0000   0.0000   0.0000   0.0000   0.0000   0.0000   0.0000   0.0000

          k =-0.4167-0.2085 0.0000 ( 11921 PWs)   bands (ev):

   -15.7369  -8.0750  -4.9597  -4.0747   1.9730   2.3544   4.4806   5.5402
     5.6700   7.0553   7.3600   8.7396   9.2567   9.7450  10.2334  10.7900
    11.2728  12.1316  12.7593  13.0314  13.5928  14.4896  15.9896  16.2227
    17.1453  17.3132  17.5677  17.8536  18.2393  19.0171  19.1290  19.6205
    19.9684  20.1480  21.0703  21.0938  21.8419  22.4934  22.6697  23.5011

     occupation numbers 
     1.0000   1.0000   1.0000   1.0000   0.0000   0.0000   0.0000   0.0000
     0.0000   0.0000   0.0000   0.0000   0.0000   0.0000   0.0000   0.0000
     0.0000   0.0000   0.0000   0.0000   0.0000   0.0000   0.0000   0.0000
     0.0000   0.0000   0.0000   0.0000   0.0000   0.0000   0.0000   0.0000
     0.0000   0.0000   0.0000   0.0000   0.0000   0.0000   0.0000   0.0000

          k =-0.4167-0.1443 0.0000 ( 11928 PWs)   bands (ev):

   -15.8070  -7.8293  -5.1306  -4.1830   2.1336   2.3582   4.5547   5.3520
     5.3882   6.9016   7.2361   8.9400   8.9951  10.1241  10.4874  10.9825
    11.5747  11.8000  13.2838  13.3608  14.0764  14.4623  14.8320  15.4739
    16.0408  17.1548  18.0399  18.3549  18.7013  18.9620  19.0267  19.6691
    20.3972  20.8285  21.4578  21.5203  22.3081  23.1703  23.2331  23.8633

     occupation numbers 
     1.0000   1.0000   1.0000   1.0000   0.0000   0.0000   0.0000   0.0000
     0.0000   0.0000   0.0000   0.0000   0.0000   0.0000   0.0000   0.0000
     0.0000   0.0000   0.0000   0.0000   0.0000   0.0000   0.0000   0.0000
     0.0000   0.0000   0.0000   0.0000   0.0000   0.0000   0.0000   0.0000
     0.0000   0.0000   0.0000   0.0000   0.0000   0.0000   0.0000   0.0000

          k =-0.4167-0.0802 0.0000 ( 11934 PWs)   bands (ev):

   -15.8568  -7.5624  -5.3919  -4.2597   2.2777   2.3865   4.7709   5.2497
     5.2665   6.6910   7.1310   8.4647   9.1626  10.2473  10.8662  11.2462
    11.9550  12.1040  13.2030  13.6514  13.7975  14.3955  14.7767  15.0041
    15.1031  16.8648  17.4879  18.3501  18.8683  19.1239  19.1615  20.2942
    20.5148  21.2711  21.9945  22.1969  22.8958  22.9545  23.8084  24.0609

     occupation numbers 
     1.0000   1.0000   1.0000   1.0000   0.0000   0.0000   0.0000   0.0000
     0.0000   0.0000   0.0000   0.0000   0.0000   0.0000   0.0000   0.0000
     0.0000   0.0000   0.0000   0.0000   0.0000   0.0000   0.0000   0.0000
     0.0000   0.0000   0.0000   0.0000   0.0000   0.0000   0.0000   0.0000
     0.0000   0.0000   0.0000   0.0000   0.0000   0.0000   0.0000   0.0000

          k =-0.4167-0.0160 0.0000 ( 11932 PWs)   bands (ev):

   -15.8795  -7.3951  -5.5683  -4.2945   2.3507   2.3974   4.8841   5.2486
     5.2969   6.5200   7.0834   8.1987   9.1823  10.1902  11.0296  11.8178
    12.4113  12.6315  12.8589  13.1161  13.3380  14.0284  14.2644  15.6809
    15.9190  16.2120  16.4111  18.9131  18.9192  19.3241  19.8321  20.0211
    20.4695  20.9462  21.0710  22.5521  23.6547  23.9973  24.6947  25.2155

     occupation numbers 
     1.0000   1.0000   1.0000   1.0000   0.0000   0.0000   0.0000   0.0000
     0.0000   0.0000   0.0000   0.0000   0.0000   0.0000   0.0000   0.0000
     0.0000   0.0000   0.0000   0.0000   0.0000   0.0000   0.0000   0.0000
     0.0000   0.0000   0.0000   0.0000   0.0000   0.0000   0.0000   0.0000
     0.0000   0.0000   0.0000   0.0000   0.0000   0.0000   0.0000   0.0000

          k =-0.4167 0.0481 0.0000 ( 11939 PWs)   bands (ev):

   -15.8718  -7.4562  -5.5034  -4.2827   2.3255   2.3941   4.8525   5.2527
     5.2603   6.5877   7.0992   8.2918   9.1831  10.2153  10.9794  11.5078
    12.2572  12.4539  12.8267  13.5239  13.5858  14.2073  14.3039  15.3841
    15.4728  16.5224  16.9377  18.5785  18.9271  19.4242  19.4534  19.9768
    20.7105  21.0584  21.4543  22.4310  23.4530  23.4818  24.3257  24.4537

     occupation numbers 
     1.0000   1.0000   1.0000   1.0000   0.0000   0.0000   0.0000   0.0000
     0.0000   0.0000   0.0000   0.0000   0.0000   0.0000   0.0000   0.0000
     0.0000   0.0000   0.0000   0.0000   0.0000   0.0000   0.0000   0.0000
     0.0000   0.0000   0.0000   0.0000   0.0000   0.0000   0.0000   0.0000
     0.0000   0.0000   0.0000   0.0000   0.0000   0.0000   0.0000   0.0000

          k =-0.4167 0.1123 0.0000 ( 11926 PWs)   bands (ev):

   -15.8349  -7.6926  -5.2596  -4.2261   2.2115   2.3738   4.6569   5.2959
     5.2974   6.8007   7.1778   8.6928   9.0997  10.2319  10.6894  11.0850
    11.7389  11.8583  13.3769  13.4888  14.1749  14.5122  14.7644  14.9357
    15.4085  17.1049  18.0153  18.2929  18.5832  18.9704  19.0599  20.0635
    20.5419  21.3727  21.7589  21.8684  22.5098  22.9376  23.4256  23.9109

     occupation numbers 
     1.0000   1.0000   1.0000   1.0000   0.0000   0.0000   0.0000   0.0000
     0.0000   0.0000   0.0000   0.0000   0.0000   0.0000   0.0000   0.0000
     0.0000   0.0000   0.0000   0.0000   0.0000   0.0000   0.0000   0.0000
     0.0000   0.0000   0.0000   0.0000   0.0000   0.0000   0.0000   0.0000
     0.0000   0.0000   0.0000   0.0000   0.0000   0.0000   0.0000   0.0000

          k =-0.4167 0.1764 0.0000 ( 11923 PWs)   bands (ev):

   -15.7739  -7.9597  -5.0251  -4.1320   2.0514   2.3472   4.4929   5.4333
     5.5151   6.9871   7.2998   8.8678   9.1508   9.9477  10.3216  10.8781
    11.4200  11.9277  13.0566  13.2271  13.7250  14.4422  15.3928  15.9735
    16.7022  17.1373  17.6964  18.3585  18.4008  19.2402  19.3729  19.6742
    19.8092  20.0328  21.3219  21.4028  22.0036  22.8807  23.1075  23.7807

     occupation numbers 
     1.0000   1.0000   1.0000   1.0000   0.0000   0.0000   0.0000   0.0000
     0.0000   0.0000   0.0000   0.0000   0.0000   0.0000   0.0000   0.0000
     0.0000   0.0000   0.0000   0.0000   0.0000   0.0000   0.0000   0.0000
     0.0000   0.0000   0.0000   0.0000   0.0000   0.0000   0.0000   0.0000
     0.0000   0.0000   0.0000   0.0000   0.0000   0.0000   0.0000   0.0000

          k =-0.4167 0.2406 0.0000 ( 11926 PWs)   bands (ev):

   -15.6974  -8.1691  -4.9459  -4.0134   1.9058   2.3955   4.5134   5.6677
     5.8478   7.1085   7.4065   8.6234   9.2440   9.5491  10.1638  10.7367
    11.1840  12.3005  12.4636  12.8386  13.6608  14.5875  16.1675  16.3499
    16.9638  17.4502  17.5954  17.9098  18.1625  18.2896  18.9318  19.7628
    20.4409  20.6087  20.6672  20.6967  21.8313  22.2147  22.2965  23.3346

     occupation numbers 
     1.0000   1.0000   1.0000   1.0000   0.0000   0.0000   0.0000   0.0000
     0.0000   0.0000   0.0000   0.0000   0.0000   0.0000   0.0000   0.0000
     0.0000   0.0000   0.0000   0.0000   0.0000   0.0000   0.0000   0.0000
     0.0000   0.0000   0.0000   0.0000   0.0000   0.0000   0.0000   0.0000
     0.0000   0.0000   0.0000   0.0000   0.0000   0.0000   0.0000   0.0000

          k =-0.4167 0.3047 0.0000 ( 11909 PWs)   bands (ev):

   -15.6161  -8.2772  -5.0915  -3.8874   1.8301   2.6244   4.6673   5.9300
     6.2482   7.2137   7.4467   8.4199   9.0267   9.2737   9.8664  10.7357
    11.1223  12.1604  12.2850  12.7017  14.1642  14.7937  15.4125  15.7121
    16.4305  16.5778  16.9510  18.1006  18.1570  19.2837  19.3036  19.7322
    20.0521  20.4475  21.0534  21.3947  21.4954  22.5425  22.8114  23.0870

     occupation numbers 
     1.0000   1.0000   1.0000   1.0000   0.0000   0.0000   0.0000   0.0000
     0.0000   0.0000   0.0000   0.0000   0.0000   0.0000   0.0000   0.0000
     0.0000   0.0000   0.0000   0.0000   0.0000   0.0000   0.0000   0.0000
     0.0000   0.0000   0.0000   0.0000   0.0000   0.0000   0.0000   0.0000
     0.0000   0.0000   0.0000   0.0000   0.0000   0.0000   0.0000   0.0000

          k =-0.4167-0.7858 0.0000 ( 11924 PWs)   bands (ev):

   -15.5406  -8.2638  -5.4407  -3.7720   1.8587   3.0491   4.8494   6.0096
     6.6534   7.4253   7.5617   8.2432   8.5457   9.2082   9.8417  10.7911
    10.9544  11.7514  12.5242  12.5735  14.0714  14.5620  14.9914  15.0790
    15.3961  15.9920  16.7150  17.1592  17.9870  19.2380  19.3100  20.7418
    21.2217  21.3024  21.4071  21.5803  22.0605  22.1789  22.5134  22.9783

     occupation numbers 
     1.0000   1.0000   1.0000   1.0000   0.0000   0.0000   0.0000   0.0000
     0.0000   0.0000   0.0000   0.0000   0.0000   0.0000   0.0000   0.0000
     0.0000   0.0000   0.0000   0.0000   0.0000   0.0000   0.0000   0.0000
     0.0000   0.0000   0.0000   0.0000   0.0000   0.0000   0.0000   0.0000
     0.0000   0.0000   0.0000   0.0000   0.0000   0.0000   0.0000   0.0000

          k =-0.4167-0.7217 0.0000 ( 11941 PWs)   bands (ev):

   -15.4798  -8.1276  -5.9101  -3.6813   1.9934   3.5702   5.0061   5.7376
     6.9816   7.7187   7.8252   8.2192   8.2657   9.2981   9.9554  10.5507
    11.0274  11.5518  12.4575  12.6072  12.8459  13.5577  13.9860  15.5693
    15.6495  15.9562  16.4134  16.4862  16.8815  19.2946  19.8953  20.7703
    21.1380  21.5893  21.8266  21.8501  22.7168  22.7686  23.0003  23.8325

     occupation numbers 
     1.0000   1.0000   1.0000   1.0000   0.0000   0.0000   0.0000   0.0000
     0.0000   0.0000   0.0000   0.0000   0.0000   0.0000   0.0000   0.0000
     0.0000   0.0000   0.0000   0.0000   0.0000   0.0000   0.0000   0.0000
     0.0000   0.0000   0.0000   0.0000   0.0000   0.0000   0.0000   0.0000
     0.0000   0.0000   0.0000   0.0000   0.0000   0.0000   0.0000   0.0000

          k =-0.4167-0.6575 0.0000 ( 11951 PWs)   bands (ev):

   -15.4392  -7.8957  -6.3923  -3.6227   2.1852   4.0017   5.1799   5.3231
     7.1362   7.6399   7.8732   8.6896   8.7254   9.4035   9.9937  10.2308
    11.3108  11.4073  11.8040  11.9090  12.6717  13.1241  13.3480  14.9046
    15.3305  15.9118  15.9237  17.1190  17.2350  18.9088  19.5249  20.4227
    21.0013  21.8162  22.1580  22.5134  22.9407  23.1942  24.5695  25.1035

     occupation numbers 
     1.0000   1.0000   1.0000   1.0000   0.0000   0.0000   0.0000   0.0000
     0.0000   0.0000   0.0000   0.0000   0.0000   0.0000   0.0000   0.0000
     0.0000   0.0000   0.0000   0.0000   0.0000   0.0000   0.0000   0.0000
     0.0000   0.0000   0.0000   0.0000   0.0000   0.0000   0.0000   0.0000
     0.0000   0.0000   0.0000   0.0000   0.0000   0.0000   0.0000   0.0000

          k =-0.4167-0.5934 0.0000 ( 11956 PWs)   bands (ev):

   -15.4215  -7.6880  -6.7161  -3.5978   2.3162   4.1882   5.0671   5.3338
     7.1618   7.5206   7.9190   8.9812   9.1952   9.5825  10.2332  10.2333
    10.6886  10.8566  11.6676  12.0478  12.0740  13.2564  13.7234  14.3184
    14.3302  15.8683  16.1665  17.7773  17.9176  18.4409  18.4838  20.5100
    21.3539  21.9346  22.0598  23.0142  23.2212  23.7624  24.2435  24.6096

     occupation numbers 
     1.0000   1.0000   1.0000   1.0000   0.0000   0.0000   0.0000   0.0000
     0.0000   0.0000   0.0000   0.0000   0.0000   0.0000   0.0000   0.0000
     0.0000   0.0000   0.0000   0.0000   0.0000   0.0000   0.0000   0.0000
     0.0000   0.0000   0.0000   0.0000   0.0000   0.0000   0.0000   0.0000
     0.0000   0.0000   0.0000   0.0000   0.0000   0.0000   0.0000   0.0000

          k =-0.4167-0.5292 0.0000 ( 11965 PWs)   bands (ev):

   -15.4274  -7.7730  -6.5918  -3.6061   2.2679   4.1278   5.1590   5.2726
     7.1565   7.5607   7.9064   8.9081   9.0157   9.4407  10.0644  10.2438
    11.0672  11.0947  11.6567  11.9110  12.3603  13.3066  13.3471  14.5335
    14.8028  15.8829  16.0724  17.4914  17.5661  18.6418  18.9903  20.4814
    21.1614  21.8955  22.1787  22.8159  23.0229  23.5017  24.6821  24.9239

     occupation numbers 
     1.0000   1.0000   1.0000   1.0000   0.0000   0.0000   0.0000   0.0000
     0.0000   0.0000   0.0000   0.0000   0.0000   0.0000   0.0000   0.0000
     0.0000   0.0000   0.0000   0.0000   0.0000   0.0000   0.0000   0.0000
     0.0000   0.0000   0.0000   0.0000   0.0000   0.0000   0.0000   0.0000
     0.0000   0.0000   0.0000   0.0000   0.0000   0.0000   0.0000   0.0000

          k =-0.4167-0.4651 0.0000 ( 11951 PWs)   bands (ev):

   -15.4568  -8.0198  -6.1573  -3.6478   2.0879   3.8103   5.0873   5.5282
     7.0831   7.7499   7.8141   8.4201   8.4407   9.3669   9.9737  10.3426
    11.1921  11.5170  12.2546  12.2730  12.5981  13.3917  13.4490  15.3823
    15.6980  15.7658  16.0794  16.8284  16.8662  19.1493  19.9522  20.4160
    20.9815  21.7070  22.0046  22.1682  22.9348  22.9371  23.7291  24.5700

     occupation numbers 
     1.0000   1.0000   1.0000   1.0000   0.0000   0.0000   0.0000   0.0000
     0.0000   0.0000   0.0000   0.0000   0.0000   0.0000   0.0000   0.0000
     0.0000   0.0000   0.0000   0.0000   0.0000   0.0000   0.0000   0.0000
     0.0000   0.0000   0.0000   0.0000   0.0000   0.0000   0.0000   0.0000
     0.0000   0.0000   0.0000   0.0000   0.0000   0.0000   0.0000   0.0000

          k =-0.4167-0.4009 0.0000 ( 11925 PWs)   bands (ev):

   -15.5080  -8.2103  -5.6667  -3.7230   1.9144   3.3077   4.9299   5.9111
     6.8334   7.5778   7.7118   8.2088   8.3073   9.2384   9.9087  10.7290
    10.9422  11.6090  12.4464  12.6776  13.4546  13.9879  14.5680  15.3372
    15.4770  16.0855  16.5596  16.6271  17.3720  19.3336  19.6048  21.0183
    21.3819  21.3855  21.6980  21.7714  22.2748  22.2833  22.7179  23.0667

     occupation numbers 
     1.0000   1.0000   1.0000   1.0000   0.0000   0.0000   0.0000   0.0000
     0.0000   0.0000   0.0000   0.0000   0.0000   0.0000   0.0000   0.0000
     0.0000   0.0000   0.0000   0.0000   0.0000   0.0000   0.0000   0.0000
     0.0000   0.0000   0.0000   0.0000   0.0000   0.0000   0.0000   0.0000
     0.0000   0.0000   0.0000   0.0000   0.0000   0.0000   0.0000   0.0000

          k =-0.4167-0.3368 0.0000 ( 11927 PWs)   bands (ev):

   -15.5770  -8.2863  -5.2450  -3.8274   1.8303   2.8161   4.7605   6.0111
     6.4550   7.3002   7.4764   8.3234   8.8092   9.2167   9.8066  10.7707
    11.0328  11.9537  12.4143  12.6306  14.5319  14.6379  15.0893  15.2311
    15.9215  16.0878  16.8110  17.7185  18.4831  18.9229  19.2859  20.2791
    20.6325  20.8636  21.1349  21.5059  21.6534  22.5906  22.7647  23.0278

     occupation numbers 
     1.0000   1.0000   1.0000   1.0000   0.0000   0.0000   0.0000   0.0000
     0.0000   0.0000   0.0000   0.0000   0.0000   0.0000   0.0000   0.0000
     0.0000   0.0000   0.0000   0.0000   0.0000   0.0000   0.0000   0.0000
     0.0000   0.0000   0.0000   0.0000   0.0000   0.0000   0.0000   0.0000
     0.0000   0.0000   0.0000   0.0000   0.0000   0.0000   0.0000   0.0000

          k =-0.4167-0.2726 0.0000 ( 11908 PWs)   bands (ev):

   -15.6566  -8.2375  -4.9899  -3.9502   1.8564   2.4835   4.5804   5.8044
     6.0429   7.1559   7.4330   8.5193   9.1639   9.3861  10.0208  10.7201
    11.1650  12.2851  12.3144  12.7335  13.8631  14.6991  15.9710  15.9883
    16.9519  17.0368  17.4343  17.6365  18.1293  18.9494  19.1105  19.7885
    20.0849  20.3022  20.9603  21.0872  21.5818  22.2977  22.3928  23.1826

     occupation numbers 
     1.0000   1.0000   1.0000   1.0000   0.0000   0.0000   0.0000   0.0000
     0.0000   0.0000   0.0000   0.0000   0.0000   0.0000   0.0000   0.0000
     0.0000   0.0000   0.0000   0.0000   0.0000   0.0000   0.0000   0.0000
     0.0000   0.0000   0.0000   0.0000   0.0000   0.0000   0.0000   0.0000
     0.0000   0.0000   0.0000   0.0000   0.0000   0.0000   0.0000   0.0000

          k =-0.3611-0.1764 0.0000 ( 11917 PWs)   bands (ev):

   -15.9498  -7.6204  -4.8729  -4.3920   1.9537   2.2088   4.3293   5.0220
     5.0470   6.6130   7.2192   8.9186   9.1853  10.4691  11.2413  11.4676
    11.5961  11.6775  12.8661  13.2578  14.1820  14.7023  16.1349  16.5091
    17.4418  17.7335  17.7867  18.6213  18.8007  18.9274  19.2026  19.4392
    19.9278  20.2627  21.1381  21.3351  22.4041  22.6470  23.2370  23.8397

     occupation numbers 
     1.0000   1.0000   1.0000   1.0000   0.0000   0.0000   0.0000   0.0000
     0.0000   0.0000   0.0000   0.0000   0.0000   0.0000   0.0000   0.0000
     0.0000   0.0000   0.0000   0.0000   0.0000   0.0000   0.0000   0.0000
     0.0000   0.0000   0.0000   0.0000   0.0000   0.0000   0.0000   0.0000
     0.0000   0.0000   0.0000   0.0000   0.0000   0.0000   0.0000   0.0000

          k =-0.3611-0.1123 0.0000 ( 11929 PWs)   bands (ev):

   -16.0373  -7.3326  -5.0001  -4.5187   1.8497   2.3092   4.3075   4.8861
     5.0355   6.3490   7.1863   8.8286   8.8987  10.6830  11.1770  11.4237
    12.1743  12.3041  13.1977  13.3420  14.9022  15.0529  15.3873  15.8222
    16.3095  17.3764  18.2170  18.7964  18.8746  19.1365  19.4695  19.9023
    20.3207  21.0607  21.5121  21.9415  22.5347  23.2249  23.5920  23.9301

     occupation numbers 
     1.0000   1.0000   1.0000   1.0000   0.0000   0.0000   0.0000   0.0000
     0.0000   0.0000   0.0000   0.0000   0.0000   0.0000   0.0000   0.0000
     0.0000   0.0000   0.0000   0.0000   0.0000   0.0000   0.0000   0.0000
     0.0000   0.0000   0.0000   0.0000   0.0000   0.0000   0.0000   0.0000
     0.0000   0.0000   0.0000   0.0000   0.0000   0.0000   0.0000   0.0000

          k =-0.3611-0.0481 0.0000 ( 11931 PWs)   bands (ev):

   -16.0890  -7.0916  -5.1756  -4.5930   1.8058   2.3695   4.2636   4.8355
     5.2977   6.0552   7.2304   8.5545   8.6831  10.5085  11.0688  11.9932
    12.7558  12.8500  13.5295  13.8488  13.8805  14.8668  15.0809  16.0557
    16.2384  17.2435  17.7215  18.2541  18.2768  19.5180  19.9655  20.3494
    20.5318  21.7017  22.0168  22.4943  23.0808  23.4367  23.9470  24.2236

     occupation numbers 
     1.0000   1.0000   1.0000   1.0000   0.0000   0.0000   0.0000   0.0000
     0.0000   0.0000   0.0000   0.0000   0.0000   0.0000   0.0000   0.0000
     0.0000   0.0000   0.0000   0.0000   0.0000   0.0000   0.0000   0.0000
     0.0000   0.0000   0.0000   0.0000   0.0000   0.0000   0.0000   0.0000
     0.0000   0.0000   0.0000   0.0000   0.0000   0.0000   0.0000   0.0000

          k =-0.3611 0.0160 0.0000 ( 11927 PWs)   bands (ev):

   -16.0996  -7.0311  -5.2254  -4.6082   1.7978   2.3816   4.2499   4.8284
     5.4317   5.9316   7.2539   8.4602   8.6388  10.4599  11.0437  12.2427
    12.8502  13.1206  13.4179  13.9322  14.0324  14.5317  14.5796  16.4994
    16.6971  16.9425  17.2469  18.2115  18.3903  19.1463  20.2406  20.6529
    20.6871  21.4461  21.5917  23.1437  23.4903  23.6238  24.3879  24.6897

     occupation numbers 
     1.0000   1.0000   1.0000   1.0000   0.0000   0.0000   0.0000   0.0000
     0.0000   0.0000   0.0000   0.0000   0.0000   0.0000   0.0000   0.0000
     0.0000   0.0000   0.0000   0.0000   0.0000   0.0000   0.0000   0.0000
     0.0000   0.0000   0.0000   0.0000   0.0000   0.0000   0.0000   0.0000
     0.0000   0.0000   0.0000   0.0000   0.0000   0.0000   0.0000   0.0000

          k =-0.3611 0.0802 0.0000 ( 11926 PWs)   bands (ev):

   -16.0680  -7.1985  -5.0926  -4.5630   1.8226   2.3452   4.2860   4.8530
     5.1453   6.2047   7.2017   8.7140   8.7544  10.5973  11.1161  11.6777
    12.5067  12.5914  13.2851  13.6332  14.3533  15.2932  15.5883  15.6481
    15.8209  17.3549  18.0821  18.4128  18.5084  19.5411  19.6834  20.2323
    20.2736  21.7013  22.0937  22.1469  22.7542  22.7573  23.8320  24.0774

     occupation numbers 
     1.0000   1.0000   1.0000   1.0000   0.0000   0.0000   0.0000   0.0000
     0.0000   0.0000   0.0000   0.0000   0.0000   0.0000   0.0000   0.0000
     0.0000   0.0000   0.0000   0.0000   0.0000   0.0000   0.0000   0.0000
     0.0000   0.0000   0.0000   0.0000   0.0000   0.0000   0.0000   0.0000
     0.0000   0.0000   0.0000   0.0000   0.0000   0.0000   0.0000   0.0000

          k =-0.3611 0.1443 0.0000 ( 11924 PWs)   bands (ev):

   -15.9975  -7.4774  -4.9207  -4.4613   1.8913   2.2628   4.3198   4.9408
     5.0007   6.4844   7.1924   8.8862   9.0680  10.6460  11.2319  11.3628
    11.8738  11.9700  13.0513  13.2118  14.5906  14.9902  15.5345  16.2528
    16.9590  17.4843  18.0966  18.6480  19.0051  19.2299  19.4712  19.7835
    19.9242  20.2510  21.2523  21.6699  22.5604  23.0813  23.3041  24.2034

     occupation numbers 
     1.0000   1.0000   1.0000   1.0000   0.0000   0.0000   0.0000   0.0000
     0.0000   0.0000   0.0000   0.0000   0.0000   0.0000   0.0000   0.0000
     0.0000   0.0000   0.0000   0.0000   0.0000   0.0000   0.0000   0.0000
     0.0000   0.0000   0.0000   0.0000   0.0000   0.0000   0.0000   0.0000
     0.0000   0.0000   0.0000   0.0000   0.0000   0.0000   0.0000   0.0000

          k =-0.3611 0.2085 0.0000 ( 11920 PWs)   bands (ev):

   -15.8956  -7.7525  -4.8702  -4.3125   2.0455   2.1519   4.3545   5.1323
     5.1587   6.7378   7.2581   8.9250   9.2285  10.2674  11.0815  11.3077
    11.4173  11.7346  12.8664  13.2878  13.8535  14.5047  16.5475  16.5762
    16.9947  18.1571  18.2035  18.3566  18.4558  18.5531  18.8592  19.1380
    20.2283  20.7213  20.8745  20.9323  22.2793  22.4835  23.0925  23.6354

     occupation numbers 
     1.0000   1.0000   1.0000   1.0000   0.0000   0.0000   0.0000   0.0000
     0.0000   0.0000   0.0000   0.0000   0.0000   0.0000   0.0000   0.0000
     0.0000   0.0000   0.0000   0.0000   0.0000   0.0000   0.0000   0.0000
     0.0000   0.0000   0.0000   0.0000   0.0000   0.0000   0.0000   0.0000
     0.0000   0.0000   0.0000   0.0000   0.0000   0.0000   0.0000   0.0000

          k =-0.3611 0.2726 0.0000 ( 11923 PWs)   bands (ev):

   -15.7739  -7.9597  -5.0251  -4.1320   2.0514   2.3472   4.4929   5.4333
     5.5151   6.9871   7.2998   8.8678   9.1508   9.9477  10.3216  10.8781
    11.4200  11.9277  13.0566  13.2271  13.7250  14.4422  15.3928  15.9735
    16.7022  17.1373  17.6964  18.3585  18.4008  19.2402  19.3729  19.6742
    19.8092  20.0328  21.3219  21.4028  22.0036  22.8807  23.1075  23.7807

     occupation numbers 
     1.0000   1.0000   1.0000   1.0000   0.0000   0.0000   0.0000   0.0000
     0.0000   0.0000   0.0000   0.0000   0.0000   0.0000   0.0000   0.0000
     0.0000   0.0000   0.0000   0.0000   0.0000   0.0000   0.0000   0.0000
     0.0000   0.0000   0.0000   0.0000   0.0000   0.0000   0.0000   0.0000
     0.0000   0.0000   0.0000   0.0000   0.0000   0.0000   0.0000   0.0000

          k =-0.3611 0.3368 0.0000 ( 11930 PWs)   bands (ev):

   -15.6469  -8.0635  -5.3788  -3.9405   2.0072   2.8193   4.7206   5.7645
     5.9968   7.1717   7.2608   8.7484   9.0957   9.6952   9.7203  10.7544
    11.4276  11.6137  12.9797  13.1687  14.0034  14.4469  14.6870  14.7018
    15.3357  16.7152  17.4939  17.4992  18.0043  19.1213  19.3561  20.3333
    20.8850  21.0167  21.5518  21.6586  22.3242  22.8793  22.8967  23.4555

     occupation numbers 
     1.0000   1.0000   1.0000   1.0000   0.0000   0.0000   0.0000   0.0000
     0.0000   0.0000   0.0000   0.0000   0.0000   0.0000   0.0000   0.0000
     0.0000   0.0000   0.0000   0.0000   0.0000   0.0000   0.0000   0.0000
     0.0000   0.0000   0.0000   0.0000   0.0000   0.0000   0.0000   0.0000
     0.0000   0.0000   0.0000   0.0000   0.0000   0.0000   0.0000   0.0000

          k =-0.3611-0.7538 0.0000 ( 11938 PWs)   bands (ev):

   -15.5304  -8.0442  -5.8626  -3.7628   2.0518   3.4115   4.9586   5.7793
     6.5739   7.1702   7.5679   8.6630   8.9319   9.5061   9.6672  10.8015
    11.1690  11.3509  12.7113  12.8277  13.1236  13.5496  13.9732  15.1761
    15.2109  16.0425  16.7230  16.9916  17.3062  19.2655  19.8749  20.7565
    20.7743  21.1668  21.9179  22.0484  22.8926  22.9709  23.3827  23.8597

     occupation numbers 
     1.0000   1.0000   1.0000   1.0000   0.0000   0.0000   0.0000   0.0000
     0.0000   0.0000   0.0000   0.0000   0.0000   0.0000   0.0000   0.0000
     0.0000   0.0000   0.0000   0.0000   0.0000   0.0000   0.0000   0.0000
     0.0000   0.0000   0.0000   0.0000   0.0000   0.0000   0.0000   0.0000
     0.0000   0.0000   0.0000   0.0000   0.0000   0.0000   0.0000   0.0000

          k =-0.3611-0.6896 0.0000 ( 11951 PWs)   bands (ev):

   -15.4392  -7.8957  -6.3923  -3.6227   2.1852   4.0017   5.1799   5.3231
     7.1362   7.6399   7.8732   8.6896   8.7254   9.4035   9.9937  10.2308
    11.3108  11.4073  11.8040  11.9090  12.6717  13.1241  13.3480  14.9046
    15.3305  15.9118  15.9237  17.1190  17.2350  18.9088  19.5249  20.4227
    21.0013  21.8162  22.1580  22.5134  22.9407  23.1942  24.5695  25.1035

     occupation numbers 
     1.0000   1.0000   1.0000   1.0000   0.0000   0.0000   0.0000   0.0000
     0.0000   0.0000   0.0000   0.0000   0.0000   0.0000   0.0000   0.0000
     0.0000   0.0000   0.0000   0.0000   0.0000   0.0000   0.0000   0.0000
     0.0000   0.0000   0.0000   0.0000   0.0000   0.0000   0.0000   0.0000
     0.0000   0.0000   0.0000   0.0000   0.0000   0.0000   0.0000   0.0000

          k =-0.3611-0.6255 0.0000 ( 11965 PWs)   bands (ev):

   -15.3847  -7.6372  -6.8831  -3.5390   2.3435   4.3926   4.8802   5.4201
     7.3063   8.0881   8.3364   8.7225   8.8739   9.5053   9.9160   9.9880
    10.5970  10.9458  11.6900  11.7840  12.5678  12.9031  12.9541  14.2759
    14.4328  16.3755  16.4975  17.1098  17.3315  18.4077  18.4251  20.6688
    21.7871  22.3340  22.3391  22.9881  23.0905  23.3878  24.4391  24.5801

     occupation numbers 
     1.0000   1.0000   1.0000   1.0000   0.0000   0.0000   0.0000   0.0000
     0.0000   0.0000   0.0000   0.0000   0.0000   0.0000   0.0000   0.0000
     0.0000   0.0000   0.0000   0.0000   0.0000   0.0000   0.0000   0.0000
     0.0000   0.0000   0.0000   0.0000   0.0000   0.0000   0.0000   0.0000
     0.0000   0.0000   0.0000   0.0000   0.0000   0.0000   0.0000   0.0000

          k =-0.3611-0.5613 0.0000 ( 11969 PWs)   bands (ev):

   -15.3735  -7.5099  -7.0587  -3.5217   2.3888   4.4694   4.7718   5.5033
     7.2855   8.1515   8.4216   8.9258   9.1197   9.4070   9.7611   9.8794
    10.4190  10.8252  11.4844  12.0044  12.5957  12.6786  13.1775  13.8003
    14.3740  16.5724  16.6471  17.2197  17.3297  17.9562  18.3246  20.7241
    22.0849  22.3893  22.5160  23.0889  23.1116  23.5691  24.1411  24.3358

     occupation numbers 
     1.0000   1.0000   1.0000   1.0000   0.0000   0.0000   0.0000   0.0000
     0.0000   0.0000   0.0000   0.0000   0.0000   0.0000   0.0000   0.0000
     0.0000   0.0000   0.0000   0.0000   0.0000   0.0000   0.0000   0.0000
     0.0000   0.0000   0.0000   0.0000   0.0000   0.0000   0.0000   0.0000
     0.0000   0.0000   0.0000   0.0000   0.0000   0.0000   0.0000   0.0000

          k =-0.3611-0.4972 0.0000 ( 11963 PWs)   bands (ev):

   -15.4069  -7.7767  -6.6489  -3.5730   2.2688   4.2345   5.0754   5.2994
     7.2823   7.9102   8.0932   8.6888   8.7274   9.4614  10.0145  10.0748
    11.0050  11.1979  11.6546  11.8440  12.5032  12.9069  13.2111  14.5963
    14.8156  16.1427  16.1940  17.0669  17.3449  18.6158  18.9702  20.5608
    21.3734  22.0835  22.2519  22.8951  22.9360  23.2242  24.8177  24.9687

     occupation numbers 
     1.0000   1.0000   1.0000   1.0000   0.0000   0.0000   0.0000   0.0000
     0.0000   0.0000   0.0000   0.0000   0.0000   0.0000   0.0000   0.0000
     0.0000   0.0000   0.0000   0.0000   0.0000   0.0000   0.0000   0.0000
     0.0000   0.0000   0.0000   0.0000   0.0000   0.0000   0.0000   0.0000
     0.0000   0.0000   0.0000   0.0000   0.0000   0.0000   0.0000   0.0000

          k =-0.3611-0.4330 0.0000 ( 11942 PWs)   bands (ev):

   -15.4809  -7.9858  -6.1268  -3.6867   2.1095   3.7178   5.0690   5.5790
     6.8755   7.3679   7.7164   8.6680   8.8078   9.4258   9.8309  10.5230
    11.3202  11.3209  12.1963  12.4042  12.8938  13.4012  13.5027  15.2600
    15.3906  15.7750  16.1384  17.0843  17.2070  19.1666  19.9298  20.4035
    20.7773  21.5162  22.0877  22.1541  22.9717  23.1570  23.8254  24.5668

     occupation numbers 
     1.0000   1.0000   1.0000   1.0000   0.0000   0.0000   0.0000   0.0000
     0.0000   0.0000   0.0000   0.0000   0.0000   0.0000   0.0000   0.0000
     0.0000   0.0000   0.0000   0.0000   0.0000   0.0000   0.0000   0.0000
     0.0000   0.0000   0.0000   0.0000   0.0000   0.0000   0.0000   0.0000
     0.0000   0.0000   0.0000   0.0000   0.0000   0.0000   0.0000   0.0000

          k =-0.3611-0.3689 0.0000 ( 11935 PWs)   bands (ev):

   -15.5864  -8.0700  -5.6098  -3.8484   2.0174   3.1062   4.8423   5.8455
     6.2757   7.1099   7.4127   8.6932   9.0498   9.5892   9.6103  10.8182
    11.3299  11.3939  12.9627  13.0514  13.4927  14.0210  14.4591  14.8751
    15.0580  16.4754  17.0842  17.3389  17.4173  19.2110  19.6654  20.7563
    20.9021  21.0007  21.8863  21.9583  22.4432  22.8367  23.0715  23.4994

     occupation numbers 
     1.0000   1.0000   1.0000   1.0000   0.0000   0.0000   0.0000   0.0000
     0.0000   0.0000   0.0000   0.0000   0.0000   0.0000   0.0000   0.0000
     0.0000   0.0000   0.0000   0.0000   0.0000   0.0000   0.0000   0.0000
     0.0000   0.0000   0.0000   0.0000   0.0000   0.0000   0.0000   0.0000
     0.0000   0.0000   0.0000   0.0000   0.0000   0.0000   0.0000   0.0000

          k =-0.3611-0.3047 0.0000 ( 11929 PWs)   bands (ev):

   -15.7101  -8.0260  -5.1806  -4.0361   2.0197   2.5634   4.6005   5.6071
     5.7424   7.1190   7.2573   8.8115   9.1098   9.8300   9.9640  10.7695
    11.4362  11.8333  13.0117  13.2010  14.0489  14.4002  14.8624  15.3550
    15.9711  16.8847  17.6048  18.0190  18.6093  18.9651  19.1207  19.9230
    20.4490  20.7214  21.2862  21.4591  22.1373  23.0804  23.1218  23.4795

     occupation numbers 
     1.0000   1.0000   1.0000   1.0000   0.0000   0.0000   0.0000   0.0000
     0.0000   0.0000   0.0000   0.0000   0.0000   0.0000   0.0000   0.0000
     0.0000   0.0000   0.0000   0.0000   0.0000   0.0000   0.0000   0.0000
     0.0000   0.0000   0.0000   0.0000   0.0000   0.0000   0.0000   0.0000
     0.0000   0.0000   0.0000   0.0000   0.0000   0.0000   0.0000   0.0000

          k =-0.3611-0.2406 0.0000 ( 11931 PWs)   bands (ev):

   -15.8364  -7.8673  -4.9204  -4.2250   2.0974   2.1748   4.4086   5.2709
     5.3185   6.8614   7.2928   8.9073   9.2050  10.0904  10.7181  11.0657
    11.3989  11.8802  12.9956  13.2699  13.6553  14.4295  16.0441  16.3865
    17.3037  17.5963  17.6354  18.2728  18.4579  19.0260  19.1478  19.3998
    19.9077  20.1666  21.0937  21.2357  22.1269  22.5960  22.9796  23.6874

     occupation numbers 
     1.0000   1.0000   1.0000   1.0000   0.0000   0.0000   0.0000   0.0000
     0.0000   0.0000   0.0000   0.0000   0.0000   0.0000   0.0000   0.0000
     0.0000   0.0000   0.0000   0.0000   0.0000   0.0000   0.0000   0.0000
     0.0000   0.0000   0.0000   0.0000   0.0000   0.0000   0.0000   0.0000
     0.0000   0.0000   0.0000   0.0000   0.0000   0.0000   0.0000   0.0000

          k =-0.3056-0.1443 0.0000 ( 11902 PWs)   bands (ev):

   -16.1988  -7.0357  -4.7578  -4.7444   1.4425   2.3214   3.9183   4.6341
     4.9285   6.1252   7.0579   8.5384   9.3890  10.8031  11.5453  11.6764
    12.3292  12.5562  13.0637  13.2572  15.4538  15.8193  16.4357  16.7333
    17.5113  18.0006  18.0614  18.2378  19.0680  19.5858  19.8333  20.1050
    20.3761  20.5242  21.2582  21.3645  22.7281  22.7688  23.7663  24.1897

     occupation numbers 
     1.0000   1.0000   1.0000   1.0000   0.0000   0.0000   0.0000   0.0000
     0.0000   0.0000   0.0000   0.0000   0.0000   0.0000   0.0000   0.0000
     0.0000   0.0000   0.0000   0.0000   0.0000   0.0000   0.0000   0.0000
     0.0000   0.0000   0.0000   0.0000   0.0000   0.0000   0.0000   0.0000
     0.0000   0.0000   0.0000   0.0000   0.0000   0.0000   0.0000   0.0000

          k =-0.3056-0.0802 0.0000 ( 11909 PWs)   bands (ev):

   -16.2850  -6.7427  -4.8633  -4.8396   1.3013   2.3307   3.7562   4.5547
     5.1155   5.9189   7.0528   8.2925   9.3378  10.4355  11.2407  11.9713
    12.8633  12.9140  13.9863  14.0130  15.1890  16.0550  16.5926  16.6234
    16.8145  17.4519  17.5321  18.7293  19.0943  19.4647  19.9693  20.8026
    20.8529  21.2410  21.7834  22.1007  23.0000  23.0875  24.1285  24.1859

     occupation numbers 
     1.0000   1.0000   1.0000   1.0000   0.0000   0.0000   0.0000   0.0000
     0.0000   0.0000   0.0000   0.0000   0.0000   0.0000   0.0000   0.0000
     0.0000   0.0000   0.0000   0.0000   0.0000   0.0000   0.0000   0.0000
     0.0000   0.0000   0.0000   0.0000   0.0000   0.0000   0.0000   0.0000
     0.0000   0.0000   0.0000   0.0000   0.0000   0.0000   0.0000   0.0000

          k =-0.3056-0.0160 0.0000 ( 11904 PWs)   bands (ev):

   -16.3233  -6.5722  -4.9283  -4.9157   1.2477   2.3299   3.6854   4.5297
     5.3379   5.7445   7.0764   8.1290   9.2673  10.2680  11.0200  12.0473
    13.2877  13.6386  14.1252  14.8787  14.9957  15.3567  15.5430  17.2634
    17.3072  17.6732  17.8223  17.9574  18.3606  19.0429  19.6362  21.2461
    21.5577  22.0822  22.4483  22.8812  23.3819  23.8357  24.1869  24.2830

     occupation numbers 
     1.0000   1.0000   1.0000   1.0000   0.0000   0.0000   0.0000   0.0000
     0.0000   0.0000   0.0000   0.0000   0.0000   0.0000   0.0000   0.0000
     0.0000   0.0000   0.0000   0.0000   0.0000   0.0000   0.0000   0.0000
     0.0000   0.0000   0.0000   0.0000   0.0000   0.0000   0.0000   0.0000
     0.0000   0.0000   0.0000   0.0000   0.0000   0.0000   0.0000   0.0000

          k =-0.3056 0.0481 0.0000 ( 11900 PWs)   bands (ev):

   -16.3105  -6.6335  -4.8981  -4.8936   1.2651   2.3306   3.7091   4.5374
     5.2405   5.8207   7.0661   8.1893   9.2949  10.3238  11.0946  12.0316
    13.1513  13.2094  14.4433  14.4615  14.6708  15.7843  16.1034  16.8800
    17.1420  17.4780  17.6064  18.3128  18.7854  19.4861  19.5591  21.0560
    21.1976  21.8606  22.4499  22.6033  22.9166  23.2369  24.1169  24.2997

     occupation numbers 
     1.0000   1.0000   1.0000   1.0000   0.0000   0.0000   0.0000   0.0000
     0.0000   0.0000   0.0000   0.0000   0.0000   0.0000   0.0000   0.0000
     0.0000   0.0000   0.0000   0.0000   0.0000   0.0000   0.0000   0.0000
     0.0000   0.0000   0.0000   0.0000   0.0000   0.0000   0.0000   0.0000
     0.0000   0.0000   0.0000   0.0000   0.0000   0.0000   0.0000   0.0000

          k =-0.3056 0.1123 0.0000 ( 11912 PWs)   bands (ev):

   -16.2475  -6.8821  -4.8118  -4.7877   1.3591   2.3284   3.8262   4.5853
     5.0041   6.0207   7.0471   8.4148   9.3766  10.5994  11.4469  11.8100
    12.6240  12.6545  13.5138  13.5935  15.7145  15.8215  16.3522  16.6772
    17.2799  17.5757  17.6827  18.7065  19.0570  19.7918  20.1794  20.5120
    20.5323  20.6299  21.2357  21.5693  23.1099  23.1128  23.8213  23.9225

     occupation numbers 
     1.0000   1.0000   1.0000   1.0000   0.0000   0.0000   0.0000   0.0000
     0.0000   0.0000   0.0000   0.0000   0.0000   0.0000   0.0000   0.0000
     0.0000   0.0000   0.0000   0.0000   0.0000   0.0000   0.0000   0.0000
     0.0000   0.0000   0.0000   0.0000   0.0000   0.0000   0.0000   0.0000
     0.0000   0.0000   0.0000   0.0000   0.0000   0.0000   0.0000   0.0000

          k =-0.3056 0.1764 0.0000 ( 11908 PWs)   bands (ev):

   -16.1399  -7.1916  -4.7650  -4.6624   1.5564   2.3080   4.0319   4.7067
     4.9008   6.2353   7.0892   8.6565   9.3518  11.0162  11.2485  11.7637
    12.1337  12.4194  12.7445  13.0929  15.1095  15.5106  16.7212  16.8345
    17.1819  18.1333  18.5247  18.5786  18.7208  18.7827  19.5393  19.8354
    20.3453  20.7261  21.2098  21.2688  22.4744  22.5339  23.8756  23.9207

     occupation numbers 
     1.0000   1.0000   1.0000   1.0000   0.0000   0.0000   0.0000   0.0000
     0.0000   0.0000   0.0000   0.0000   0.0000   0.0000   0.0000   0.0000
     0.0000   0.0000   0.0000   0.0000   0.0000   0.0000   0.0000   0.0000
     0.0000   0.0000   0.0000   0.0000   0.0000   0.0000   0.0000   0.0000
     0.0000   0.0000   0.0000   0.0000   0.0000   0.0000   0.0000   0.0000

          k =-0.3056 0.2406 0.0000 ( 11924 PWs)   bands (ev):

   -15.9975  -7.4774  -4.9207  -4.4613   1.8913   2.2628   4.3198   4.9408
     5.0007   6.4844   7.1924   8.8862   9.0680  10.6460  11.2319  11.3628
    11.8738  11.9700  13.0513  13.2118  14.5906  14.9902  15.5345  16.2528
    16.9590  17.4843  18.0966  18.6480  19.0051  19.2299  19.4712  19.7835
    19.9242  20.2510  21.2523  21.6699  22.5604  23.0813  23.3041  24.2034

     occupation numbers 
     1.0000   1.0000   1.0000   1.0000   0.0000   0.0000   0.0000   0.0000
     0.0000   0.0000   0.0000   0.0000   0.0000   0.0000   0.0000   0.0000
     0.0000   0.0000   0.0000   0.0000   0.0000   0.0000   0.0000   0.0000
     0.0000   0.0000   0.0000   0.0000   0.0000   0.0000   0.0000   0.0000
     0.0000   0.0000   0.0000   0.0000   0.0000   0.0000   0.0000   0.0000

          k =-0.3056 0.3047 0.0000 ( 11926 PWs)   bands (ev):

   -15.8349  -7.6926  -5.2596  -4.2261   2.2115   2.3738   4.6569   5.2959
     5.2974   6.8007   7.1778   8.6928   9.0997  10.2319  10.6894  11.0850
    11.7389  11.8583  13.3769  13.4888  14.1749  14.5122  14.7644  14.9357
    15.4085  17.1049  18.0153  18.2929  18.5832  18.9704  19.0599  20.0635
    20.5419  21.3727  21.7589  21.8684  22.5098  22.9376  23.4256  23.9109

     occupation numbers 
     1.0000   1.0000   1.0000   1.0000   0.0000   0.0000   0.0000   0.0000
     0.0000   0.0000   0.0000   0.0000   0.0000   0.0000   0.0000   0.0000
     0.0000   0.0000   0.0000   0.0000   0.0000   0.0000   0.0000   0.0000
     0.0000   0.0000   0.0000   0.0000   0.0000   0.0000   0.0000   0.0000
     0.0000   0.0000   0.0000   0.0000   0.0000   0.0000   0.0000   0.0000

          k =-0.3056 0.3689 0.0000 ( 11948 PWs)   bands (ev):

   -15.6707  -7.8084  -5.7234  -3.9820   2.1902   2.9735   4.9503   5.6842
     5.7915   6.8218   7.2186   8.7314   9.1075  10.1904  10.3008  10.6248
    11.5473  11.6985  12.8939  13.4091  13.6156  13.6820  13.9341  14.8810
    14.9751  16.2259  16.8023  17.9755  18.2806  19.1772  19.6610  20.3421
    20.6429  20.9704  21.8388  21.9943  23.2961  23.3602  23.9801  24.0237

     occupation numbers 
     1.0000   1.0000   1.0000   1.0000   0.0000   0.0000   0.0000   0.0000
     0.0000   0.0000   0.0000   0.0000   0.0000   0.0000   0.0000   0.0000
     0.0000   0.0000   0.0000   0.0000   0.0000   0.0000   0.0000   0.0000
     0.0000   0.0000   0.0000   0.0000   0.0000   0.0000   0.0000   0.0000
     0.0000   0.0000   0.0000   0.0000   0.0000   0.0000   0.0000   0.0000

          k =-0.3056-0.7217 0.0000 ( 11951 PWs)   bands (ev):

   -15.5260  -7.8076  -6.2340  -3.7610   2.2272   3.6220   5.1543   5.5722
     6.4666   6.8752   7.6873   8.9048   9.0395   9.9905  10.1371  10.6381
    11.1455  11.4066  11.8070  12.4036  12.8641  13.6040  13.8462  14.7326
    14.9162  15.7549  15.8509  17.9614  18.1023  19.0370  19.5413  20.2515
    20.4353  21.3369  21.7771  22.3957  23.2664  23.9457  24.6751  25.0754

     occupation numbers 
     1.0000   1.0000   1.0000   1.0000   0.0000   0.0000   0.0000   0.0000
     0.0000   0.0000   0.0000   0.0000   0.0000   0.0000   0.0000   0.0000
     0.0000   0.0000   0.0000   0.0000   0.0000   0.0000   0.0000   0.0000
     0.0000   0.0000   0.0000   0.0000   0.0000   0.0000   0.0000   0.0000
     0.0000   0.0000   0.0000   0.0000   0.0000   0.0000   0.0000   0.0000

          k =-0.3056-0.6575 0.0000 ( 11956 PWs)   bands (ev):

   -15.4215  -7.6880  -6.7161  -3.5978   2.3162   4.1882   5.0671   5.3338
     7.1618   7.5206   7.9190   8.9812   9.1952   9.5825  10.2332  10.2333
    10.6886  10.8566  11.6676  12.0478  12.0740  13.2564  13.7234  14.3184
    14.3302  15.8683  16.1665  17.7773  17.9176  18.4409  18.4838  20.5100
    21.3539  21.9346  22.0598  23.0142  23.2212  23.7624  24.2435  24.6096

     occupation numbers 
     1.0000   1.0000   1.0000   1.0000   0.0000   0.0000   0.0000   0.0000
     0.0000   0.0000   0.0000   0.0000   0.0000   0.0000   0.0000   0.0000
     0.0000   0.0000   0.0000   0.0000   0.0000   0.0000   0.0000   0.0000
     0.0000   0.0000   0.0000   0.0000   0.0000   0.0000   0.0000   0.0000
     0.0000   0.0000   0.0000   0.0000   0.0000   0.0000   0.0000   0.0000

          k =-0.3056-0.5934 0.0000 ( 11969 PWs)   bands (ev):

   -15.3735  -7.5099  -7.0587  -3.5217   2.3888   4.4694   4.7718   5.5033
     7.2855   8.1515   8.4216   8.9258   9.1197   9.4070   9.7611   9.8794
    10.4190  10.8252  11.4844  12.0044  12.5957  12.6786  13.1775  13.8003
    14.3740  16.5724  16.6471  17.2197  17.3297  17.9562  18.3246  20.7241
    22.0849  22.3893  22.5160  23.0889  23.1116  23.5691  24.1411  24.3358

     occupation numbers 
     1.0000   1.0000   1.0000   1.0000   0.0000   0.0000   0.0000   0.0000
     0.0000   0.0000   0.0000   0.0000   0.0000   0.0000   0.0000   0.0000
     0.0000   0.0000   0.0000   0.0000   0.0000   0.0000   0.0000   0.0000
     0.0000   0.0000   0.0000   0.0000   0.0000   0.0000   0.0000   0.0000
     0.0000   0.0000   0.0000   0.0000   0.0000   0.0000   0.0000   0.0000

          k =-0.3056-0.5292 0.0000 ( 11973 PWs)   bands (ev):

   -15.3897  -7.5943  -6.9188  -3.5475   2.3611   4.3748   4.8758   5.4314
     7.3037   7.8787   8.0925   9.1007   9.1779   9.4254   9.9615   9.9994
    10.5921  10.7027  11.6424  12.0063  12.1952  12.9191  13.5392  13.9415
    14.3463  16.2463  16.3740  17.4904  17.7231  18.0729  18.3465  20.6451
    21.8046  22.2347  22.2401  23.2245  23.2315  23.5689  24.0056  24.4080

     occupation numbers 
     1.0000   1.0000   1.0000   1.0000   0.0000   0.0000   0.0000   0.0000
     0.0000   0.0000   0.0000   0.0000   0.0000   0.0000   0.0000   0.0000
     0.0000   0.0000   0.0000   0.0000   0.0000   0.0000   0.0000   0.0000
     0.0000   0.0000   0.0000   0.0000   0.0000   0.0000   0.0000   0.0000
     0.0000   0.0000   0.0000   0.0000   0.0000   0.0000   0.0000   0.0000

          k =-0.3056-0.4651 0.0000 ( 11961 PWs)   bands (ev):

   -15.4676  -7.7618  -6.4833  -3.6701   2.2679   3.9276   5.2414   5.3159
     6.8360   7.1681   7.8461   8.8766   9.1525   9.7760  10.1819  10.5123
    11.0398  11.1726  11.4388  12.1573  12.4242  13.5231  13.8134  14.4335
    14.7379  15.6258  15.9866  17.9284  18.0147  18.6950  19.0245  20.3597
    20.8626  21.6277  21.8925  22.7066  23.2181  23.8895  24.6589  24.9056

     occupation numbers 
     1.0000   1.0000   1.0000   1.0000   0.0000   0.0000   0.0000   0.0000
     0.0000   0.0000   0.0000   0.0000   0.0000   0.0000   0.0000   0.0000
     0.0000   0.0000   0.0000   0.0000   0.0000   0.0000   0.0000   0.0000
     0.0000   0.0000   0.0000   0.0000   0.0000   0.0000   0.0000   0.0000
     0.0000   0.0000   0.0000   0.0000   0.0000   0.0000   0.0000   0.0000

          k =-0.3056-0.4009 0.0000 ( 11951 PWs)   bands (ev):

   -15.5946  -7.8232  -5.9776  -3.8664   2.2006   3.2978   5.0611   5.7328
     6.1115   6.7310   7.4586   8.8810   9.0079  10.1777  10.1821  10.5547
    11.3015  11.6159  12.3449  12.8531  13.3600  13.5910  13.7998  14.8919
    15.0079  15.8725  16.2270  17.9616  18.1875  19.2473  19.7975  20.2303
    20.3504  21.1154  21.7485  22.1183  23.3440  23.8829  24.0955  24.6584

     occupation numbers 
     1.0000   1.0000   1.0000   1.0000   0.0000   0.0000   0.0000   0.0000
     0.0000   0.0000   0.0000   0.0000   0.0000   0.0000   0.0000   0.0000
     0.0000   0.0000   0.0000   0.0000   0.0000   0.0000   0.0000   0.0000
     0.0000   0.0000   0.0000   0.0000   0.0000   0.0000   0.0000   0.0000
     0.0000   0.0000   0.0000   0.0000   0.0000   0.0000   0.0000   0.0000

          k =-0.3056-0.3368 0.0000 ( 11934 PWs)   bands (ev):

   -15.7517  -7.7642  -5.4807  -4.1033   2.1949   2.6624   4.8150   5.5036
     5.5179   6.9962   7.0254   8.6507   9.1457  10.1564  10.4734  10.8443
    11.7245  11.7522  13.3502  13.5274  13.6843  14.1544  14.5091  14.7805
    14.9408  16.7152  17.4156  18.0520  18.4029  19.0351  19.3795  20.5060
    20.5190  21.0873  22.0115  22.0671  22.7193  23.0110  23.6882  23.8142

     occupation numbers 
     1.0000   1.0000   1.0000   1.0000   0.0000   0.0000   0.0000   0.0000
     0.0000   0.0000   0.0000   0.0000   0.0000   0.0000   0.0000   0.0000
     0.0000   0.0000   0.0000   0.0000   0.0000   0.0000   0.0000   0.0000
     0.0000   0.0000   0.0000   0.0000   0.0000   0.0000   0.0000   0.0000
     0.0000   0.0000   0.0000   0.0000   0.0000   0.0000   0.0000   0.0000

          k =-0.3056-0.2726 0.0000 ( 11914 PWs)   bands (ev):

   -15.9177  -7.5959  -5.0700  -4.3466   2.1151   2.2358   4.4869   5.1054
     5.1244   6.6316   7.2221   8.8571   9.0009  10.4076  10.9438  11.2947
    11.7785  11.8854  13.3060  13.3278  14.4774  14.8111  14.8629  15.6273
    16.1533  17.3047  18.3469  18.7335  18.7558  18.9716  19.0424  19.6423
    20.3588  20.9511  21.4706  21.7823  22.4024  23.2326  23.3784  23.9599

     occupation numbers 
     1.0000   1.0000   1.0000   1.0000   0.0000   0.0000   0.0000   0.0000
     0.0000   0.0000   0.0000   0.0000   0.0000   0.0000   0.0000   0.0000
     0.0000   0.0000   0.0000   0.0000   0.0000   0.0000   0.0000   0.0000
     0.0000   0.0000   0.0000   0.0000   0.0000   0.0000   0.0000   0.0000
     0.0000   0.0000   0.0000   0.0000   0.0000   0.0000   0.0000   0.0000

          k =-0.3056-0.2085 0.0000 ( 11917 PWs)   bands (ev):

   -16.0722  -7.3410  -4.8183  -4.5674   1.7051   2.2879   4.1664   4.8079
     4.9252   6.3538   7.1383   8.7711   9.2454  10.9200  11.2467  11.5349
    12.0244  12.1863  12.7773  13.1158  14.8146  15.2186  16.2630  16.6139
    17.5377  17.8769  17.9033  18.4088  19.0219  19.2982  19.4740  19.6806
    20.0508  20.3854  21.1931  21.3660  22.6142  22.6837  23.4614  24.0817

     occupation numbers 
     1.0000   1.0000   1.0000   1.0000   0.0000   0.0000   0.0000   0.0000
     0.0000   0.0000   0.0000   0.0000   0.0000   0.0000   0.0000   0.0000
     0.0000   0.0000   0.0000   0.0000   0.0000   0.0000   0.0000   0.0000
     0.0000   0.0000   0.0000   0.0000   0.0000   0.0000   0.0000   0.0000
     0.0000   0.0000   0.0000   0.0000   0.0000   0.0000   0.0000   0.0000

          k =-0.2500-0.1123 0.0000 ( 11886 PWs)   bands (ev):

   -16.4478  -6.3740  -5.0821  -4.6258   0.9139   2.2494   3.3777   4.3883
     4.8782   5.9918   6.9318   8.0048   9.8679  10.0866  11.7893  11.8104
    12.5678  13.2953  14.4915  14.6881  16.2916  16.3963  17.0831  17.4460
    17.4859  18.1947  18.3380  18.5649  19.0835  19.8367  20.2610  20.4919
    21.2897  21.3272  21.5983  21.8175  22.7234  23.1840  23.4254  24.4365

     occupation numbers 
     1.0000   1.0000   1.0000   1.0000   0.0000   0.0000   0.0000   0.0000
     0.0000   0.0000   0.0000   0.0000   0.0000   0.0000   0.0000   0.0000
     0.0000   0.0000   0.0000   0.0000   0.0000   0.0000   0.0000   0.0000
     0.0000   0.0000   0.0000   0.0000   0.0000   0.0000   0.0000   0.0000
     0.0000   0.0000   0.0000   0.0000   0.0000   0.0000   0.0000   0.0000

          k =-0.2500-0.0481 0.0000 ( 11888 PWs)   bands (ev):

   -16.5190  -6.1133  -5.1767  -4.6657   0.7782   2.2041   3.2329   4.3386
     4.8657   6.0682   6.9312   7.7629   9.8466  10.0418  11.3069  11.6767
    13.1848  14.1209  15.4437  15.4978  15.7080  16.5967  16.6836  17.3037
    17.3245  18.1080  18.2322  18.5802  18.9337  19.9498  20.0500  21.2337
    21.3674  22.2343  22.5096  22.6898  22.9517  23.4526  24.3323  24.4372

     occupation numbers 
     1.0000   1.0000   1.0000   1.0000   0.0000   0.0000   0.0000   0.0000
     0.0000   0.0000   0.0000   0.0000   0.0000   0.0000   0.0000   0.0000
     0.0000   0.0000   0.0000   0.0000   0.0000   0.0000   0.0000   0.0000
     0.0000   0.0000   0.0000   0.0000   0.0000   0.0000   0.0000   0.0000
     0.0000   0.0000   0.0000   0.0000   0.0000   0.0000   0.0000   0.0000

          k =-0.2500 0.0160 0.0000 ( 11882 PWs)   bands (ev):

   -16.5335  -6.0500  -5.1958  -4.6858   0.7522   2.1938   3.2043   4.3294
     4.8659   6.0975   6.9346   7.6962   9.7978  10.0956  11.1760  11.6523
    13.3234  14.5504  15.1305  15.9178  16.1159  16.3906  16.5169  16.8831
    17.3633  17.8910  18.4576  18.7884  19.1270  19.5443  19.5687  21.4233
    21.9084  22.6731  22.8730  23.1179  23.3873  23.5054  24.2147  24.2558

     occupation numbers 
     1.0000   1.0000   1.0000   1.0000   0.0000   0.0000   0.0000   0.0000
     0.0000   0.0000   0.0000   0.0000   0.0000   0.0000   0.0000   0.0000
     0.0000   0.0000   0.0000   0.0000   0.0000   0.0000   0.0000   0.0000
     0.0000   0.0000   0.0000   0.0000   0.0000   0.0000   0.0000   0.0000
     0.0000   0.0000   0.0000   0.0000   0.0000   0.0000   0.0000   0.0000

          k =-0.2500 0.0802 0.0000 ( 11882 PWs)   bands (ev):

   -16.4903  -6.2271  -5.1386  -4.6395   0.8313   2.2235   3.2905   4.3576
     4.8681   6.0266   6.9281   7.8744   9.9441   9.9607  11.5317  11.7242
    12.9220  13.6907  14.9576  15.1321  16.0359  16.4604  16.8709  17.6221
    17.7022  17.8810  18.0548  18.7505  18.8510  20.0891  20.5311  20.8588
    21.1582  21.4765  21.8804  22.2010  22.7680  23.5760  24.0289  24.4810

     occupation numbers 
     1.0000   1.0000   1.0000   1.0000   0.0000   0.0000   0.0000   0.0000
     0.0000   0.0000   0.0000   0.0000   0.0000   0.0000   0.0000   0.0000
     0.0000   0.0000   0.0000   0.0000   0.0000   0.0000   0.0000   0.0000
     0.0000   0.0000   0.0000   0.0000   0.0000   0.0000   0.0000   0.0000
     0.0000   0.0000   0.0000   0.0000   0.0000   0.0000   0.0000   0.0000

          k =-0.2500 0.1443 0.0000 ( 11889 PWs)   bands (ev):

   -16.3924  -6.5391  -5.0081  -4.6404   1.0282   2.2784   3.4954   4.4334
     4.9022   5.9758   6.9496   8.1385   9.7572  10.2618  11.8541  12.0643
    12.2169  12.9611  14.0722  14.2746  16.1460  16.5919  16.9522  17.1747
    17.5400  17.9082  18.5183  19.0032  19.0887  19.2553  19.9367  20.3277
    21.1961  21.2650  21.6228  21.6565  22.5773  22.8156  23.3880  24.4414

     occupation numbers 
     1.0000   1.0000   1.0000   1.0000   0.0000   0.0000   0.0000   0.0000
     0.0000   0.0000   0.0000   0.0000   0.0000   0.0000   0.0000   0.0000
     0.0000   0.0000   0.0000   0.0000   0.0000   0.0000   0.0000   0.0000
     0.0000   0.0000   0.0000   0.0000   0.0000   0.0000   0.0000   0.0000
     0.0000   0.0000   0.0000   0.0000   0.0000   0.0000   0.0000   0.0000

          k =-0.2500 0.2085 0.0000 ( 11912 PWs)   bands (ev):

   -16.2475  -6.8821  -4.8118  -4.7877   1.3591   2.3284   3.8262   4.5853
     5.0041   6.0207   7.0471   8.4148   9.3766  10.5994  11.4469  11.8100
    12.6240  12.6545  13.5138  13.5935  15.7145  15.8215  16.3522  16.6772
    17.2799  17.5757  17.6827  18.7065  19.0570  19.7918  20.1794  20.5120
    20.5323  20.6299  21.2357  21.5693  23.1099  23.1128  23.8213  23.9225

     occupation numbers 
     1.0000   1.0000   1.0000   1.0000   0.0000   0.0000   0.0000   0.0000
     0.0000   0.0000   0.0000   0.0000   0.0000   0.0000   0.0000   0.0000
     0.0000   0.0000   0.0000   0.0000   0.0000   0.0000   0.0000   0.0000
     0.0000   0.0000   0.0000   0.0000   0.0000   0.0000   0.0000   0.0000
     0.0000   0.0000   0.0000   0.0000   0.0000   0.0000   0.0000   0.0000

          k =-0.2500 0.2726 0.0000 ( 11926 PWs)   bands (ev):

   -16.0680  -7.1985  -5.0926  -4.5630   1.8226   2.3452   4.2860   4.8530
     5.1453   6.2047   7.2017   8.7140   8.7544  10.5973  11.1161  11.6777
    12.5067  12.5914  13.2851  13.6332  14.3533  15.2932  15.5883  15.6481
    15.8209  17.3549  18.0821  18.4128  18.5084  19.5411  19.6834  20.2323
    20.2736  21.7013  22.0937  22.1469  22.7542  22.7573  23.8320  24.0774

     occupation numbers 
     1.0000   1.0000   1.0000   1.0000   0.0000   0.0000   0.0000   0.0000
     0.0000   0.0000   0.0000   0.0000   0.0000   0.0000   0.0000   0.0000
     0.0000   0.0000   0.0000   0.0000   0.0000   0.0000   0.0000   0.0000
     0.0000   0.0000   0.0000   0.0000   0.0000   0.0000   0.0000   0.0000
     0.0000   0.0000   0.0000   0.0000   0.0000   0.0000   0.0000   0.0000

          k =-0.2500 0.3368 0.0000 ( 11939 PWs)   bands (ev):

   -15.8718  -7.4562  -5.5034  -4.2827   2.3255   2.3941   4.8525   5.2527
     5.2603   6.5877   7.0992   8.2918   9.1831  10.2153  10.9794  11.5078
    12.2572  12.4539  12.8267  13.5239  13.5858  14.2073  14.3039  15.3841
    15.4728  16.5224  16.9377  18.5785  18.9271  19.4242  19.4534  19.9768
    20.7105  21.0584  21.4543  22.4310  23.4530  23.4818  24.3257  24.4537

     occupation numbers 
     1.0000   1.0000   1.0000   1.0000   0.0000   0.0000   0.0000   0.0000
     0.0000   0.0000   0.0000   0.0000   0.0000   0.0000   0.0000   0.0000
     0.0000   0.0000   0.0000   0.0000   0.0000   0.0000   0.0000   0.0000
     0.0000   0.0000   0.0000   0.0000   0.0000   0.0000   0.0000   0.0000
     0.0000   0.0000   0.0000   0.0000   0.0000   0.0000   0.0000   0.0000

          k =-0.2500 0.4009 0.0000 ( 11977 PWs)   bands (ev):

   -15.6820  -7.6376  -5.9431  -4.0018   2.2924   3.0313   5.1849   5.6623
     5.6795   6.5939   7.1464   8.5663   9.3451  10.0847  10.8046  11.0235
    11.7213  11.9227  12.3308  12.6179  12.9773  14.0532  14.1234  14.8843
    15.2186  15.8335  15.8806  18.8412  19.1035  19.3838  19.5369  19.7785
    19.9985  20.9906  21.1572  22.2826  23.6265  24.4417  24.9040  25.5284

     occupation numbers 
     1.0000   1.0000   1.0000   1.0000   0.0000   0.0000   0.0000   0.0000
     0.0000   0.0000   0.0000   0.0000   0.0000   0.0000   0.0000   0.0000
     0.0000   0.0000   0.0000   0.0000   0.0000   0.0000   0.0000   0.0000
     0.0000   0.0000   0.0000   0.0000   0.0000   0.0000   0.0000   0.0000
     0.0000   0.0000   0.0000   0.0000   0.0000   0.0000   0.0000   0.0000

          k =-0.2500-0.6896 0.0000 ( 11971 PWs)   bands (ev):

   -15.5252  -7.7381  -6.3323  -3.7610   2.2711   3.6599   5.2199   5.5198
     6.4382   6.8129   7.7074   8.9407   9.0320  10.1610  10.4516  10.7133
    11.0482  11.1799  11.6184  12.3244  12.5793  13.8620  14.2207  14.3427
    14.6374  15.5329  15.9148  18.3565  18.5584  18.7842  19.0663  20.2307
    20.5274  21.3644  21.5015  22.5724  23.4124  24.2626  24.8282  24.9827

     occupation numbers 
     1.0000   1.0000   1.0000   1.0000   0.0000   0.0000   0.0000   0.0000
     0.0000   0.0000   0.0000   0.0000   0.0000   0.0000   0.0000   0.0000
     0.0000   0.0000   0.0000   0.0000   0.0000   0.0000   0.0000   0.0000
     0.0000   0.0000   0.0000   0.0000   0.0000   0.0000   0.0000   0.0000
     0.0000   0.0000   0.0000   0.0000   0.0000   0.0000   0.0000   0.0000

          k =-0.2500-0.6255 0.0000 ( 11965 PWs)   bands (ev):

   -15.4274  -7.7730  -6.5918  -3.6061   2.2679   4.1278   5.1590   5.2726
     7.1565   7.5607   7.9064   8.9081   9.0157   9.4407  10.0644  10.2438
    11.0672  11.0947  11.6567  11.9110  12.3603  13.3066  13.3471  14.5335
    14.8028  15.8829  16.0724  17.4914  17.5661  18.6418  18.9903  20.4814
    21.1614  21.8955  22.1787  22.8159  23.0229  23.5017  24.6821  24.9239

     occupation numbers 
     1.0000   1.0000   1.0000   1.0000   0.0000   0.0000   0.0000   0.0000
     0.0000   0.0000   0.0000   0.0000   0.0000   0.0000   0.0000   0.0000
     0.0000   0.0000   0.0000   0.0000   0.0000   0.0000   0.0000   0.0000
     0.0000   0.0000   0.0000   0.0000   0.0000   0.0000   0.0000   0.0000
     0.0000   0.0000   0.0000   0.0000   0.0000   0.0000   0.0000   0.0000

          k =-0.2500-0.5613 0.0000 ( 11963 PWs)   bands (ev):

   -15.4069  -7.7767  -6.6489  -3.5730   2.2688   4.2345   5.0754   5.2994
     7.2823   7.9102   8.0932   8.6888   8.7274   9.4614  10.0145  10.0748
    11.0050  11.1979  11.6546  11.8440  12.5032  12.9069  13.2111  14.5963
    14.8156  16.1427  16.1940  17.0669  17.3449  18.6158  18.9702  20.5608
    21.3734  22.0835  22.2519  22.8951  22.9360  23.2242  24.8177  24.9687

     occupation numbers 
     1.0000   1.0000   1.0000   1.0000   0.0000   0.0000   0.0000   0.0000
     0.0000   0.0000   0.0000   0.0000   0.0000   0.0000   0.0000   0.0000
     0.0000   0.0000   0.0000   0.0000   0.0000   0.0000   0.0000   0.0000
     0.0000   0.0000   0.0000   0.0000   0.0000   0.0000   0.0000   0.0000
     0.0000   0.0000   0.0000   0.0000   0.0000   0.0000   0.0000   0.0000

          k =-0.2500-0.4972 0.0000 ( 11961 PWs)   bands (ev):

   -15.4676  -7.7618  -6.4833  -3.6701   2.2679   3.9276   5.2414   5.3159
     6.8360   7.1681   7.8461   8.8766   9.1525   9.7760  10.1819  10.5123
    11.0398  11.1726  11.4388  12.1573  12.4242  13.5231  13.8134  14.4335
    14.7379  15.6258  15.9866  17.9284  18.0147  18.6950  19.0245  20.3597
    20.8626  21.6277  21.8925  22.7066  23.2181  23.8895  24.6589  24.9056

     occupation numbers 
     1.0000   1.0000   1.0000   1.0000   0.0000   0.0000   0.0000   0.0000
     0.0000   0.0000   0.0000   0.0000   0.0000   0.0000   0.0000   0.0000
     0.0000   0.0000   0.0000   0.0000   0.0000   0.0000   0.0000   0.0000
     0.0000   0.0000   0.0000   0.0000   0.0000   0.0000   0.0000   0.0000
     0.0000   0.0000   0.0000   0.0000   0.0000   0.0000   0.0000   0.0000

          k =-0.2500-0.4330 0.0000 ( 11965 PWs)   bands (ev):

   -15.5978  -7.6976  -6.1489  -3.8735   2.2793   3.3536   5.2060   5.6958
     6.0368   6.5710   7.4478   8.8040   9.1426  10.2719  10.6693  10.7585
    11.3171  11.5225  11.9518  12.4395  12.7659  14.1269  14.2128  14.4486
    14.8876  15.5895  15.8684  18.7111  18.9948  19.0127  19.1852  20.0876
    20.1544  21.1613  21.1941  22.4187  23.5489  24.4551  25.1504  25.2421

     occupation numbers 
     1.0000   1.0000   1.0000   1.0000   0.0000   0.0000   0.0000   0.0000
     0.0000   0.0000   0.0000   0.0000   0.0000   0.0000   0.0000   0.0000
     0.0000   0.0000   0.0000   0.0000   0.0000   0.0000   0.0000   0.0000
     0.0000   0.0000   0.0000   0.0000   0.0000   0.0000   0.0000   0.0000
     0.0000   0.0000   0.0000   0.0000   0.0000   0.0000   0.0000   0.0000

          k =-0.2500-0.3689 0.0000 ( 11948 PWs)   bands (ev):

   -15.7745  -7.5571  -5.7246  -4.1400   2.3088   2.7080   5.0992   5.3726
     5.4840   6.8394   6.8515   8.3728   9.3644  10.0471  10.9030  11.2933
    12.1485  12.1523  12.5943  13.0285  13.2909  14.0178  14.1179  15.2417
    15.3742  16.0711  16.3233  18.8126  19.1157  19.4340  19.4699  19.7961
    20.3501  21.0796  21.1184  22.2768  23.6289  24.0648  24.5800  25.0308

     occupation numbers 
     1.0000   1.0000   1.0000   1.0000   0.0000   0.0000   0.0000   0.0000
     0.0000   0.0000   0.0000   0.0000   0.0000   0.0000   0.0000   0.0000
     0.0000   0.0000   0.0000   0.0000   0.0000   0.0000   0.0000   0.0000
     0.0000   0.0000   0.0000   0.0000   0.0000   0.0000   0.0000   0.0000
     0.0000   0.0000   0.0000   0.0000   0.0000   0.0000   0.0000   0.0000

          k =-0.2500-0.3047 0.0000 ( 11932 PWs)   bands (ev):

   -15.9707  -7.3361  -5.2894  -4.4251   2.0971   2.3389   4.5604   5.0376
     5.2056   6.3697   7.2235   8.4133   8.9614  10.4260  11.0429  11.6345
    12.3683  12.5232  13.1595  13.7087  13.8385  14.6430  14.9241  15.4579
    15.6027  17.0401  17.5982  18.3539  18.6204  19.5317  19.5548  20.0982
    20.4855  21.4930  21.9787  22.3343  22.9819  23.1335  23.8546  24.1850

     occupation numbers 
     1.0000   1.0000   1.0000   1.0000   0.0000   0.0000   0.0000   0.0000
     0.0000   0.0000   0.0000   0.0000   0.0000   0.0000   0.0000   0.0000
     0.0000   0.0000   0.0000   0.0000   0.0000   0.0000   0.0000   0.0000
     0.0000   0.0000   0.0000   0.0000   0.0000   0.0000   0.0000   0.0000
     0.0000   0.0000   0.0000   0.0000   0.0000   0.0000   0.0000   0.0000

          k =-0.2500-0.2406 0.0000 ( 11918 PWs)   bands (ev):

   -16.1611  -7.0460  -4.9227  -4.6928   1.5753   2.3420   4.0402   4.7026
     5.0749   6.0911   7.1250   8.5729   9.0664  10.6646  11.2370  11.7200
    12.6327  12.6431  13.3815  13.5111  15.0205  15.6395  16.0239  16.1016
    16.5101  17.4101  17.8795  18.7754  19.0283  19.2989  19.9021  20.3687
    20.3868  21.1298  21.6058  21.9881  22.7954  23.1286  23.8712  23.9928

     occupation numbers 
     1.0000   1.0000   1.0000   1.0000   0.0000   0.0000   0.0000   0.0000
     0.0000   0.0000   0.0000   0.0000   0.0000   0.0000   0.0000   0.0000
     0.0000   0.0000   0.0000   0.0000   0.0000   0.0000   0.0000   0.0000
     0.0000   0.0000   0.0000   0.0000   0.0000   0.0000   0.0000   0.0000
     0.0000   0.0000   0.0000   0.0000   0.0000   0.0000   0.0000   0.0000

          k =-0.2500-0.1764 0.0000 ( 11902 PWs)   bands (ev):

   -16.3252  -6.7111  -4.9175  -4.6931   1.1764   2.3061   3.6447   4.4973
     4.9444   5.9842   6.9872   8.2730   9.6039  10.4459  11.7589  11.8746
    12.4249  12.7350  13.7276  13.9036  15.9939  16.3109  16.7377  16.9638
    17.3484  18.1009  18.2252  18.3149  19.0764  19.7625  20.0625  20.3658
    20.8586  20.9114  21.3493  21.4681  22.7719  22.9490  23.7251  24.1205

     occupation numbers 
     1.0000   1.0000   1.0000   1.0000   0.0000   0.0000   0.0000   0.0000
     0.0000   0.0000   0.0000   0.0000   0.0000   0.0000   0.0000   0.0000
     0.0000   0.0000   0.0000   0.0000   0.0000   0.0000   0.0000   0.0000
     0.0000   0.0000   0.0000   0.0000   0.0000   0.0000   0.0000   0.0000
     0.0000   0.0000   0.0000   0.0000   0.0000   0.0000   0.0000   0.0000

          k =-0.1944-0.0802 0.0000 ( 11901 PWs)   bands (ev):

   -16.6697  -5.6903  -5.3734  -4.4917   0.4167   2.0664   2.9051   4.2151
     4.5267   6.3539   6.8667   7.5444   9.4235  10.3941  11.3333  12.0703
    13.0178  14.7692  15.7840  15.9824  16.4156  16.6515  17.4290  17.9946
    18.1962  18.9624  19.0841  19.1984  19.3296  20.0790  20.5737  21.0224
    21.3245  21.9430  22.0284  22.8479  22.9195  23.7481  23.7733  24.4252

     occupation numbers 
     1.0000   1.0000   1.0000   1.0000   0.0000   0.0000   0.0000   0.0000
     0.0000   0.0000   0.0000   0.0000   0.0000   0.0000   0.0000   0.0000
     0.0000   0.0000   0.0000   0.0000   0.0000   0.0000   0.0000   0.0000
     0.0000   0.0000   0.0000   0.0000   0.0000   0.0000   0.0000   0.0000
     0.0000   0.0000   0.0000   0.0000   0.0000   0.0000   0.0000   0.0000

          k =-0.1944-0.0160 0.0000 ( 11880 PWs)   bands (ev):

   -16.7165  -5.5019  -5.4338  -4.5004   0.3129   2.0188   2.8096   4.1806
     4.4474   6.5017   6.8655   7.3970   9.2833  10.5502  11.2296  11.8311
    13.4318  15.2583  15.8383  16.6100  16.7248  17.1678  17.4315  17.4537
    17.9282  18.2613  18.3976  19.7506  20.0812  20.3498  20.5502  21.3392
    21.8023  22.6151  22.9474  23.0973  23.1698  23.7548  24.0945  24.1500

     occupation numbers 
     1.0000   1.0000   1.0000   1.0000   0.0000   0.0000   0.0000   0.0000
     0.0000   0.0000   0.0000   0.0000   0.0000   0.0000   0.0000   0.0000
     0.0000   0.0000   0.0000   0.0000   0.0000   0.0000   0.0000   0.0000
     0.0000   0.0000   0.0000   0.0000   0.0000   0.0000   0.0000   0.0000
     0.0000   0.0000   0.0000   0.0000   0.0000   0.0000   0.0000   0.0000

          k =-0.1944 0.0481 0.0000 ( 11883 PWs)   bands (ev):

   -16.7008  -5.5690  -5.4136  -4.4934   0.3474   2.0351   2.8414   4.1921
     4.4734   6.4451   6.8652   7.4543   9.3296  10.4900  11.2641  11.9274
    13.2837  15.1009  15.7276  16.3472  16.7728  16.9590  17.1474  17.6851
    18.1439  18.7126  18.7232  19.4397  19.5929  20.5459  20.5672  21.4246
    21.5192  22.1533  22.1570  22.9524  23.1783  23.8374  24.3115  24.3748

     occupation numbers 
     1.0000   1.0000   1.0000   1.0000   0.0000   0.0000   0.0000   0.0000
     0.0000   0.0000   0.0000   0.0000   0.0000   0.0000   0.0000   0.0000
     0.0000   0.0000   0.0000   0.0000   0.0000   0.0000   0.0000   0.0000
     0.0000   0.0000   0.0000   0.0000   0.0000   0.0000   0.0000   0.0000
     0.0000   0.0000   0.0000   0.0000   0.0000   0.0000   0.0000   0.0000

          k =-0.1944 0.1123 0.0000 ( 11911 PWs)   bands (ev):

   -16.6237  -5.8490  -5.3136  -4.5100   0.5209   2.1108   3.0010   4.2497
     4.6090   6.2483   6.8740   7.6463   9.5638  10.2809  11.4360  12.1309
    12.7646  14.3896  15.6269  15.8525  16.0727  16.4783  17.6460  18.0515
    18.1167  18.6929  18.6929  19.3968  19.5459  19.8606  20.2177  20.4159
    21.3791  22.1558  22.1866  22.4210  22.8652  23.1303  23.4581  24.3067

     occupation numbers 
     1.0000   1.0000   1.0000   1.0000   0.0000   0.0000   0.0000   0.0000
     0.0000   0.0000   0.0000   0.0000   0.0000   0.0000   0.0000   0.0000
     0.0000   0.0000   0.0000   0.0000   0.0000   0.0000   0.0000   0.0000
     0.0000   0.0000   0.0000   0.0000   0.0000   0.0000   0.0000   0.0000
     0.0000   0.0000   0.0000   0.0000   0.0000   0.0000   0.0000   0.0000

          k =-0.1944 0.1764 0.0000 ( 11882 PWs)   bands (ev):

   -16.4903  -6.2271  -5.1386  -4.6395   0.8313   2.2235   3.2905   4.3576
     4.8681   6.0266   6.9281   7.8744   9.9441   9.9607  11.5317  11.7242
    12.9220  13.6907  14.9576  15.1321  16.0359  16.4604  16.8709  17.6221
    17.7022  17.8810  18.0548  18.7505  18.8510  20.0891  20.5311  20.8588
    21.1582  21.4765  21.8804  22.2010  22.7680  23.5760  24.0289  24.4810

     occupation numbers 
     1.0000   1.0000   1.0000   1.0000   0.0000   0.0000   0.0000   0.0000
     0.0000   0.0000   0.0000   0.0000   0.0000   0.0000   0.0000   0.0000
     0.0000   0.0000   0.0000   0.0000   0.0000   0.0000   0.0000   0.0000
     0.0000   0.0000   0.0000   0.0000   0.0000   0.0000   0.0000   0.0000
     0.0000   0.0000   0.0000   0.0000   0.0000   0.0000   0.0000   0.0000

          k =-0.1944 0.2406 0.0000 ( 11900 PWs)   bands (ev):

   -16.3105  -6.6335  -4.8981  -4.8936   1.2651   2.3306   3.7091   4.5374
     5.2405   5.8207   7.0661   8.1893   9.2949  10.3238  11.0946  12.0316
    13.1513  13.2094  14.4433  14.4615  14.6708  15.7843  16.1034  16.8800
    17.1420  17.4780  17.6064  18.3128  18.7854  19.4861  19.5591  21.0560
    21.1976  21.8606  22.4499  22.6033  22.9166  23.2369  24.1169  24.2997

     occupation numbers 
     1.0000   1.0000   1.0000   1.0000   0.0000   0.0000   0.0000   0.0000
     0.0000   0.0000   0.0000   0.0000   0.0000   0.0000   0.0000   0.0000
     0.0000   0.0000   0.0000   0.0000   0.0000   0.0000   0.0000   0.0000
     0.0000   0.0000   0.0000   0.0000   0.0000   0.0000   0.0000   0.0000
     0.0000   0.0000   0.0000   0.0000   0.0000   0.0000   0.0000   0.0000

          k =-0.1944 0.3047 0.0000 ( 11927 PWs)   bands (ev):

   -16.0996  -7.0311  -5.2254  -4.6082   1.7978   2.3816   4.2499   4.8284
     5.4317   5.9316   7.2539   8.4602   8.6388  10.4599  11.0437  12.2427
    12.8502  13.1206  13.4179  13.9322  14.0324  14.5317  14.5796  16.4994
    16.6971  16.9425  17.2469  18.2115  18.3903  19.1463  20.2406  20.6529
    20.6871  21.4461  21.5917  23.1437  23.4903  23.6238  24.3879  24.6897

     occupation numbers 
     1.0000   1.0000   1.0000   1.0000   0.0000   0.0000   0.0000   0.0000
     0.0000   0.0000   0.0000   0.0000   0.0000   0.0000   0.0000   0.0000
     0.0000   0.0000   0.0000   0.0000   0.0000   0.0000   0.0000   0.0000
     0.0000   0.0000   0.0000   0.0000   0.0000   0.0000   0.0000   0.0000
     0.0000   0.0000   0.0000   0.0000   0.0000   0.0000   0.0000   0.0000

          k =-0.1944 0.3689 0.0000 ( 11932 PWs)   bands (ev):

   -15.8795  -7.3951  -5.5683  -4.2945   2.3507   2.3974   4.8841   5.2486
     5.2969   6.5200   7.0834   8.1987   9.1823  10.1902  11.0296  11.8178
    12.4113  12.6315  12.8589  13.1161  13.3380  14.0284  14.2644  15.6809
    15.9190  16.2120  16.4111  18.9131  18.9192  19.3241  19.8321  20.0211
    20.4695  20.9462  21.0710  22.5521  23.6547  23.9973  24.6947  25.2155

     occupation numbers 
     1.0000   1.0000   1.0000   1.0000   0.0000   0.0000   0.0000   0.0000
     0.0000   0.0000   0.0000   0.0000   0.0000   0.0000   0.0000   0.0000
     0.0000   0.0000   0.0000   0.0000   0.0000   0.0000   0.0000   0.0000
     0.0000   0.0000   0.0000   0.0000   0.0000   0.0000   0.0000   0.0000
     0.0000   0.0000   0.0000   0.0000   0.0000   0.0000   0.0000   0.0000

          k =-0.1944 0.4330 0.0000 ( 11952 PWs)   bands (ev):

   -15.6782  -7.7011  -5.8626  -3.9951   2.2564   3.0132   5.0889   5.6771
     5.7136   6.6776   7.1763   8.6209   9.2574  10.1614  10.6051  10.7916
    11.6950  11.8109  12.4677  12.9680  13.3593  13.8625  13.9607  14.9880
    15.0241  15.9592  16.2692  18.4448  18.7031  19.3180  19.6392  19.9796
    20.3061  21.0988  21.3913  22.1495  23.5284  24.0625  24.3363  24.8240

     occupation numbers 
     1.0000   1.0000   1.0000   1.0000   0.0000   0.0000   0.0000   0.0000
     0.0000   0.0000   0.0000   0.0000   0.0000   0.0000   0.0000   0.0000
     0.0000   0.0000   0.0000   0.0000   0.0000   0.0000   0.0000   0.0000
     0.0000   0.0000   0.0000   0.0000   0.0000   0.0000   0.0000   0.0000
     0.0000   0.0000   0.0000   0.0000   0.0000   0.0000   0.0000   0.0000

          k =-0.1944-0.6575 0.0000 ( 11953 PWs)   bands (ev):

   -15.5277  -7.9193  -6.0665  -3.7614   2.1491   3.5407   5.0544   5.6648
     6.5156   6.9972   7.6410   8.8139   9.0285   9.7417   9.8298  10.7013
    11.1145  11.4701  12.2426  12.6338  13.1919  13.4454  13.6146  15.0748
    15.1083  15.8106  16.1847  17.4878  17.6775  19.1997  19.8806  20.3894
    20.5038  21.2747  22.0184  22.1287  23.1202  23.5089  23.9591  24.5815

     occupation numbers 
     1.0000   1.0000   1.0000   1.0000   0.0000   0.0000   0.0000   0.0000
     0.0000   0.0000   0.0000   0.0000   0.0000   0.0000   0.0000   0.0000
     0.0000   0.0000   0.0000   0.0000   0.0000   0.0000   0.0000   0.0000
     0.0000   0.0000   0.0000   0.0000   0.0000   0.0000   0.0000   0.0000
     0.0000   0.0000   0.0000   0.0000   0.0000   0.0000   0.0000   0.0000

          k =-0.1944-0.5934 0.0000 ( 11951 PWs)   bands (ev):

   -15.4568  -8.0198  -6.1573  -3.6478   2.0879   3.8103   5.0873   5.5282
     7.0831   7.7499   7.8141   8.4201   8.4407   9.3669   9.9737  10.3426
    11.1921  11.5170  12.2546  12.2730  12.5981  13.3917  13.4490  15.3823
    15.6980  15.7658  16.0794  16.8284  16.8662  19.1493  19.9522  20.4160
    20.9815  21.7070  22.0046  22.1682  22.9348  22.9371  23.7291  24.5700

     occupation numbers 
     1.0000   1.0000   1.0000   1.0000   0.0000   0.0000   0.0000   0.0000
     0.0000   0.0000   0.0000   0.0000   0.0000   0.0000   0.0000   0.0000
     0.0000   0.0000   0.0000   0.0000   0.0000   0.0000   0.0000   0.0000
     0.0000   0.0000   0.0000   0.0000   0.0000   0.0000   0.0000   0.0000
     0.0000   0.0000   0.0000   0.0000   0.0000   0.0000   0.0000   0.0000

          k =-0.1944-0.5292 0.0000 ( 11942 PWs)   bands (ev):

   -15.4809  -7.9858  -6.1268  -3.6867   2.1095   3.7178   5.0690   5.5790
     6.8755   7.3679   7.7164   8.6680   8.8078   9.4258   9.8309  10.5230
    11.3202  11.3209  12.1963  12.4042  12.8938  13.4012  13.5027  15.2600
    15.3906  15.7750  16.1384  17.0843  17.2070  19.1666  19.9298  20.4035
    20.7773  21.5162  22.0877  22.1541  22.9717  23.1570  23.8254  24.5668

     occupation numbers 
     1.0000   1.0000   1.0000   1.0000   0.0000   0.0000   0.0000   0.0000
     0.0000   0.0000   0.0000   0.0000   0.0000   0.0000   0.0000   0.0000
     0.0000   0.0000   0.0000   0.0000   0.0000   0.0000   0.0000   0.0000
     0.0000   0.0000   0.0000   0.0000   0.0000   0.0000   0.0000   0.0000
     0.0000   0.0000   0.0000   0.0000   0.0000   0.0000   0.0000   0.0000

          k =-0.1944-0.4651 0.0000 ( 11951 PWs)   bands (ev):

   -15.5946  -7.8232  -5.9776  -3.8664   2.2006   3.2978   5.0611   5.7328
     6.1115   6.7310   7.4586   8.8810   9.0079  10.1777  10.1821  10.5547
    11.3015  11.6159  12.3449  12.8531  13.3600  13.5910  13.7998  14.8919
    15.0079  15.8725  16.2270  17.9616  18.1875  19.2473  19.7975  20.2303
    20.3504  21.1154  21.7485  22.1183  23.3440  23.8829  24.0955  24.6584

     occupation numbers 
     1.0000   1.0000   1.0000   1.0000   0.0000   0.0000   0.0000   0.0000
     0.0000   0.0000   0.0000   0.0000   0.0000   0.0000   0.0000   0.0000
     0.0000   0.0000   0.0000   0.0000   0.0000   0.0000   0.0000   0.0000
     0.0000   0.0000   0.0000   0.0000   0.0000   0.0000   0.0000   0.0000
     0.0000   0.0000   0.0000   0.0000   0.0000   0.0000   0.0000   0.0000

          k =-0.1944-0.4009 0.0000 ( 11948 PWs)   bands (ev):

   -15.7745  -7.5571  -5.7246  -4.1400   2.3088   2.7080   5.0992   5.3726
     5.4840   6.8394   6.8515   8.3728   9.3644  10.0471  10.9030  11.2933
    12.1485  12.1523  12.5943  13.0285  13.2909  14.0178  14.1179  15.2417
    15.3742  16.0711  16.3233  18.8126  19.1157  19.4340  19.4699  19.7961
    20.3501  21.0796  21.1184  22.2768  23.6289  24.0648  24.5800  25.0308

     occupation numbers 
     1.0000   1.0000   1.0000   1.0000   0.0000   0.0000   0.0000   0.0000
     0.0000   0.0000   0.0000   0.0000   0.0000   0.0000   0.0000   0.0000
     0.0000   0.0000   0.0000   0.0000   0.0000   0.0000   0.0000   0.0000
     0.0000   0.0000   0.0000   0.0000   0.0000   0.0000   0.0000   0.0000
     0.0000   0.0000   0.0000   0.0000   0.0000   0.0000   0.0000   0.0000

          k =-0.1944-0.3368 0.0000 ( 11909 PWs)   bands (ev):

   -15.9891  -7.2187  -5.3995  -4.4523   2.0917   2.3762   4.5606   5.0240
     5.3635   6.2041   7.2553   8.2026   8.9083  10.3674  11.0544  12.2974
    12.4283  13.0007  13.1511  13.4226  13.7230  14.0775  14.3700  16.2102
    16.4229  16.4736  16.6191  18.5610  18.7368  19.1608  20.2754  20.4036
    20.5147  21.1026  21.1132  22.9400  23.6143  23.8245  24.5449  25.0486

     occupation numbers 
     1.0000   1.0000   1.0000   1.0000   0.0000   0.0000   0.0000   0.0000
     0.0000   0.0000   0.0000   0.0000   0.0000   0.0000   0.0000   0.0000
     0.0000   0.0000   0.0000   0.0000   0.0000   0.0000   0.0000   0.0000
     0.0000   0.0000   0.0000   0.0000   0.0000   0.0000   0.0000   0.0000
     0.0000   0.0000   0.0000   0.0000   0.0000   0.0000   0.0000   0.0000

          k =-0.1944-0.2726 0.0000 ( 11926 PWs)   bands (ev):

   -16.2077  -6.8350  -5.0539  -4.7580   1.5209   2.3657   3.9650   4.6666
     5.4090   5.7860   7.1643   8.3968   8.8625  10.4401  11.0429  12.1460
    13.0651  13.1688  13.9528  14.2265  14.2397  15.1003  15.2881  16.6989
    16.9215  17.4871  17.6759  18.1236  18.1536  19.2354  19.8990  20.8567
    20.9799  21.8899  22.1550  22.6951  23.2209  23.7574  24.0881  24.2415

     occupation numbers 
     1.0000   1.0000   1.0000   1.0000   0.0000   0.0000   0.0000   0.0000
     0.0000   0.0000   0.0000   0.0000   0.0000   0.0000   0.0000   0.0000
     0.0000   0.0000   0.0000   0.0000   0.0000   0.0000   0.0000   0.0000
     0.0000   0.0000   0.0000   0.0000   0.0000   0.0000   0.0000   0.0000
     0.0000   0.0000   0.0000   0.0000   0.0000   0.0000   0.0000   0.0000

          k =-0.1944-0.2085 0.0000 ( 11892 PWs)   bands (ev):

   -16.4054  -6.4295  -5.0257  -4.7531   1.0342   2.2810   3.4839   4.4363
     5.0441   5.9173   6.9854   8.0166   9.6788  10.1470  11.2475  11.8858
    13.0635  13.4143  14.6761  14.7788  15.3998  16.3372  16.8613  17.1123
    17.1336  17.5964  17.6401  18.6272  19.0248  19.6850  19.9708  21.0605
    21.2015  21.6989  22.1006  22.3315  22.9091  23.3375  24.2752  24.4361

     occupation numbers 
     1.0000   1.0000   1.0000   1.0000   0.0000   0.0000   0.0000   0.0000
     0.0000   0.0000   0.0000   0.0000   0.0000   0.0000   0.0000   0.0000
     0.0000   0.0000   0.0000   0.0000   0.0000   0.0000   0.0000   0.0000
     0.0000   0.0000   0.0000   0.0000   0.0000   0.0000   0.0000   0.0000
     0.0000   0.0000   0.0000   0.0000   0.0000   0.0000   0.0000   0.0000

          k =-0.1944-0.1443 0.0000 ( 11899 PWs)   bands (ev):

   -16.5635  -6.0312  -5.2350  -4.5580   0.6595   2.1647   3.1295   4.2966
     4.7225   6.1380   6.8925   7.7543   9.7425  10.1466  11.5691  11.8933
    12.7731  14.0220  15.2797  15.5150  16.1637  16.4377  17.2332  17.9787
    18.0102  18.3551  18.5421  18.8566  19.1474  19.8906  20.4563  20.7190
    21.4048  21.6249  21.9211  22.3664  22.6721  23.4684  23.4867  24.3708

     occupation numbers 
     1.0000   1.0000   1.0000   1.0000   0.0000   0.0000   0.0000   0.0000
     0.0000   0.0000   0.0000   0.0000   0.0000   0.0000   0.0000   0.0000
     0.0000   0.0000   0.0000   0.0000   0.0000   0.0000   0.0000   0.0000
     0.0000   0.0000   0.0000   0.0000   0.0000   0.0000   0.0000   0.0000
     0.0000   0.0000   0.0000   0.0000   0.0000   0.0000   0.0000   0.0000

          k =-0.1389-0.0481 0.0000 ( 11893 PWs)   bands (ev):

   -16.8454  -5.5987  -5.0497  -4.3728  -0.0220   1.8734   2.5382   4.0749
     4.1431   6.6610   6.8400   7.4548   8.8883  10.6866  10.8982  12.7887
    13.5661  14.7623  16.4547  16.5244  17.4746  17.5038  18.2289  18.3041
    18.6122  19.4731  19.8941  20.0437  20.2894  20.7360  21.1197  21.7079
    21.7562  22.1626  22.5265  22.8838  23.3839  23.8605  23.9732  24.2995

     occupation numbers 
     1.0000   1.0000   1.0000   1.0000   0.0000   0.0000   0.0000   0.0000
     0.0000   0.0000   0.0000   0.0000   0.0000   0.0000   0.0000   0.0000
     0.0000   0.0000   0.0000   0.0000   0.0000   0.0000   0.0000   0.0000
     0.0000   0.0000   0.0000   0.0000   0.0000   0.0000   0.0000   0.0000
     0.0000   0.0000   0.0000   0.0000   0.0000   0.0000   0.0000   0.0000

          k =-0.1389 0.0160 0.0000 ( 11889 PWs)   bands (ev):

   -16.8619  -5.6196  -4.9766  -4.3691  -0.0659   1.8539   2.5042   4.0613
     4.1062   6.6725   6.8390   7.4742   8.8401  10.7135  10.8543  12.8052
    13.6999  14.6723  16.6935  16.7794  17.2200  17.5340  18.1894  18.6302
    18.9242  19.1689  19.4616  19.8222  20.8781  20.9261  21.5136  21.9407
    22.1181  22.4821  22.6761  22.7448  23.0035  23.6755  23.8773  24.0771

     occupation numbers 
     1.0000   1.0000   1.0000   1.0000   0.0000   0.0000   0.0000   0.0000
     0.0000   0.0000   0.0000   0.0000   0.0000   0.0000   0.0000   0.0000
     0.0000   0.0000   0.0000   0.0000   0.0000   0.0000   0.0000   0.0000
     0.0000   0.0000   0.0000   0.0000   0.0000   0.0000   0.0000   0.0000
     0.0000   0.0000   0.0000   0.0000   0.0000   0.0000   0.0000   0.0000

          k =-0.1389 0.0802 0.0000 ( 11909 PWs)   bands (ev):

   -16.8127  -5.5570  -5.1827  -4.3900   0.0638   1.9115   2.6060   4.1018
     4.2168   6.6293   6.8430   7.4276   8.9874  10.6384  10.9837  12.6818
    13.3795  14.9243  16.1717  16.3238  17.4542  17.4948  17.9551  17.9575
    18.6910  19.5788  19.6852  20.0475  20.4524  20.5870  20.8569  20.8639
    21.1259  22.2516  22.6984  23.3921  23.3977  23.4293  23.8360  24.4273

     occupation numbers 
     1.0000   1.0000   1.0000   1.0000   0.0000   0.0000   0.0000   0.0000
     0.0000   0.0000   0.0000   0.0000   0.0000   0.0000   0.0000   0.0000
     0.0000   0.0000   0.0000   0.0000   0.0000   0.0000   0.0000   0.0000
     0.0000   0.0000   0.0000   0.0000   0.0000   0.0000   0.0000   0.0000
     0.0000   0.0000   0.0000   0.0000   0.0000   0.0000   0.0000   0.0000

          k =-0.1389 0.1443 0.0000 ( 11883 PWs)   bands (ev):

   -16.7008  -5.5690  -5.4136  -4.4934   0.3474   2.0351   2.8414   4.1921
     4.4734   6.4451   6.8652   7.4543   9.3296  10.4900  11.2641  11.9274
    13.2837  15.1009  15.7276  16.3472  16.7728  16.9590  17.1474  17.6851
    18.1439  18.7126  18.7232  19.4397  19.5929  20.5459  20.5672  21.4246
    21.5192  22.1533  22.1570  22.9524  23.1783  23.8374  24.3115  24.3748

     occupation numbers 
     1.0000   1.0000   1.0000   1.0000   0.0000   0.0000   0.0000   0.0000
     0.0000   0.0000   0.0000   0.0000   0.0000   0.0000   0.0000   0.0000
     0.0000   0.0000   0.0000   0.0000   0.0000   0.0000   0.0000   0.0000
     0.0000   0.0000   0.0000   0.0000   0.0000   0.0000   0.0000   0.0000
     0.0000   0.0000   0.0000   0.0000   0.0000   0.0000   0.0000   0.0000

          k =-0.1389 0.2085 0.0000 ( 11882 PWs)   bands (ev):

   -16.5335  -6.0500  -5.1958  -4.6858   0.7522   2.1938   3.2043   4.3294
     4.8659   6.0975   6.9346   7.6962   9.7978  10.0956  11.1760  11.6523
    13.3234  14.5504  15.1305  15.9178  16.1159  16.3906  16.5169  16.8831
    17.3633  17.8910  18.4576  18.7884  19.1270  19.5443  19.5687  21.4233
    21.9084  22.6731  22.8730  23.1179  23.3873  23.5054  24.2147  24.2558

     occupation numbers 
     1.0000   1.0000   1.0000   1.0000   0.0000   0.0000   0.0000   0.0000
     0.0000   0.0000   0.0000   0.0000   0.0000   0.0000   0.0000   0.0000
     0.0000   0.0000   0.0000   0.0000   0.0000   0.0000   0.0000   0.0000
     0.0000   0.0000   0.0000   0.0000   0.0000   0.0000   0.0000   0.0000
     0.0000   0.0000   0.0000   0.0000   0.0000   0.0000   0.0000   0.0000

          k =-0.1389 0.2726 0.0000 ( 11904 PWs)   bands (ev):

   -16.3233  -6.5722  -4.9283  -4.9157   1.2477   2.3299   3.6854   4.5297
     5.3379   5.7445   7.0764   8.1290   9.2673  10.2680  11.0200  12.0473
    13.2877  13.6386  14.1252  14.8787  14.9957  15.3567  15.5430  17.2634
    17.3072  17.6732  17.8223  17.9574  18.3606  19.0429  19.6362  21.2461
    21.5577  22.0822  22.4483  22.8812  23.3819  23.8357  24.1869  24.2830

     occupation numbers 
     1.0000   1.0000   1.0000   1.0000   0.0000   0.0000   0.0000   0.0000
     0.0000   0.0000   0.0000   0.0000   0.0000   0.0000   0.0000   0.0000
     0.0000   0.0000   0.0000   0.0000   0.0000   0.0000   0.0000   0.0000
     0.0000   0.0000   0.0000   0.0000   0.0000   0.0000   0.0000   0.0000
     0.0000   0.0000   0.0000   0.0000   0.0000   0.0000   0.0000   0.0000

          k =-0.1389 0.3368 0.0000 ( 11931 PWs)   bands (ev):

   -16.0890  -7.0916  -5.1756  -4.5930   1.8058   2.3695   4.2636   4.8355
     5.2977   6.0552   7.2304   8.5545   8.6831  10.5085  11.0688  11.9932
    12.7558  12.8500  13.5295  13.8488  13.8805  14.8668  15.0809  16.0557
    16.2384  17.2435  17.7215  18.2541  18.2768  19.5180  19.9655  20.3494
    20.5318  21.7017  22.0168  22.4943  23.0808  23.4367  23.9470  24.2236

     occupation numbers 
     1.0000   1.0000   1.0000   1.0000   0.0000   0.0000   0.0000   0.0000
     0.0000   0.0000   0.0000   0.0000   0.0000   0.0000   0.0000   0.0000
     0.0000   0.0000   0.0000   0.0000   0.0000   0.0000   0.0000   0.0000
     0.0000   0.0000   0.0000   0.0000   0.0000   0.0000   0.0000   0.0000
     0.0000   0.0000   0.0000   0.0000   0.0000   0.0000   0.0000   0.0000

          k =-0.1389 0.4009 0.0000 ( 11934 PWs)   bands (ev):

   -15.8568  -7.5624  -5.3919  -4.2597   2.2777   2.3865   4.7709   5.2497
     5.2665   6.6910   7.1310   8.4647   9.1626  10.2473  10.8662  11.2462
    11.9550  12.1040  13.2030  13.6514  13.7975  14.3955  14.7767  15.0041
    15.1031  16.8648  17.4879  18.3501  18.8683  19.1239  19.1615  20.2942
    20.5148  21.2711  21.9945  22.1969  22.8958  22.9545  23.8084  24.0609

     occupation numbers 
     1.0000   1.0000   1.0000   1.0000   0.0000   0.0000   0.0000   0.0000
     0.0000   0.0000   0.0000   0.0000   0.0000   0.0000   0.0000   0.0000
     0.0000   0.0000   0.0000   0.0000   0.0000   0.0000   0.0000   0.0000
     0.0000   0.0000   0.0000   0.0000   0.0000   0.0000   0.0000   0.0000
     0.0000   0.0000   0.0000   0.0000   0.0000   0.0000   0.0000   0.0000

          k =-0.1389 0.4651 0.0000 ( 11941 PWs)   bands (ev):

   -15.6601  -7.9354  -5.5538  -3.9635   2.1033   2.9085   4.8173   5.7120
     5.8864   6.9960   7.2517   8.8966   8.9282   9.9765   9.9930  10.6853
    11.4912  11.5748  13.2513  13.3912  13.4868  14.0524  14.3899  14.7534
    14.9562  16.5889  17.3787  17.5695  17.8816  19.1079  19.6067  20.5707
    20.6979  20.9943  21.9588  21.9979  22.5770  23.0549  23.4014  23.5423

     occupation numbers 
     1.0000   1.0000   1.0000   1.0000   0.0000   0.0000   0.0000   0.0000
     0.0000   0.0000   0.0000   0.0000   0.0000   0.0000   0.0000   0.0000
     0.0000   0.0000   0.0000   0.0000   0.0000   0.0000   0.0000   0.0000
     0.0000   0.0000   0.0000   0.0000   0.0000   0.0000   0.0000   0.0000
     0.0000   0.0000   0.0000   0.0000   0.0000   0.0000   0.0000   0.0000

          k =-0.1389-0.6255 0.0000 ( 11933 PWs)   bands (ev):

   -15.5346  -8.1628  -5.6476  -3.7660   1.9508   3.2409   4.8899   5.8989
     6.6268   7.3727   7.4849   8.4651   8.7366   9.3250   9.6934  10.8175
    11.1562  11.4134  12.7046  12.7676  13.4731  14.0003  14.5377  15.0990
    15.2611  16.3235  16.7073  16.9412  17.3727  19.2916  19.6347  20.9486
    21.1381  21.1398  21.8288  21.8930  22.3179  22.5002  22.8291  23.3062

     occupation numbers 
     1.0000   1.0000   1.0000   1.0000   0.0000   0.0000   0.0000   0.0000
     0.0000   0.0000   0.0000   0.0000   0.0000   0.0000   0.0000   0.0000
     0.0000   0.0000   0.0000   0.0000   0.0000   0.0000   0.0000   0.0000
     0.0000   0.0000   0.0000   0.0000   0.0000   0.0000   0.0000   0.0000
     0.0000   0.0000   0.0000   0.0000   0.0000   0.0000   0.0000   0.0000

          k =-0.1389-0.5613 0.0000 ( 11925 PWs)   bands (ev):

   -15.5080  -8.2103  -5.6667  -3.7230   1.9144   3.3077   4.9299   5.9111
     6.8334   7.5778   7.7118   8.2088   8.3073   9.2384   9.9087  10.7290
    10.9422  11.6090  12.4464  12.6776  13.4546  13.9879  14.5680  15.3372
    15.4770  16.0855  16.5596  16.6271  17.3720  19.3336  19.6048  21.0183
    21.3819  21.3855  21.6980  21.7714  22.2748  22.2833  22.7179  23.0667

     occupation numbers 
     1.0000   1.0000   1.0000   1.0000   0.0000   0.0000   0.0000   0.0000
     0.0000   0.0000   0.0000   0.0000   0.0000   0.0000   0.0000   0.0000
     0.0000   0.0000   0.0000   0.0000   0.0000   0.0000   0.0000   0.0000
     0.0000   0.0000   0.0000   0.0000   0.0000   0.0000   0.0000   0.0000
     0.0000   0.0000   0.0000   0.0000   0.0000   0.0000   0.0000   0.0000

          k =-0.1389-0.4972 0.0000 ( 11935 PWs)   bands (ev):

   -15.5864  -8.0700  -5.6098  -3.8484   2.0174   3.1062   4.8423   5.8455
     6.2757   7.1098   7.4127   8.6932   9.0498   9.5892   9.6103  10.8182
    11.3299  11.3939  12.9627  13.0514  13.4927  14.0210  14.4591  14.8751
    15.0580  16.4754  17.0842  17.3389  17.4173  19.2110  19.6654  20.7563
    20.9021  21.0007  21.8863  21.9583  22.4432  22.8367  23.0715  23.4994

     occupation numbers 
     1.0000   1.0000   1.0000   1.0000   0.0000   0.0000   0.0000   0.0000
     0.0000   0.0000   0.0000   0.0000   0.0000   0.0000   0.0000   0.0000
     0.0000   0.0000   0.0000   0.0000   0.0000   0.0000   0.0000   0.0000
     0.0000   0.0000   0.0000   0.0000   0.0000   0.0000   0.0000   0.0000
     0.0000   0.0000   0.0000   0.0000   0.0000   0.0000   0.0000   0.0000

          k =-0.1389-0.4330 0.0000 ( 11934 PWs)   bands (ev):

   -15.7517  -7.7642  -5.4807  -4.1033   2.1949   2.6624   4.8150   5.5036
     5.5179   6.9962   7.0254   8.6507   9.1457  10.1564  10.4734  10.8443
    11.7245  11.7522  13.3502  13.5274  13.6843  14.1544  14.5091  14.7805
    14.9408  16.7152  17.4156  18.0520  18.4029  19.0351  19.3795  20.5060
    20.5190  21.0873  22.0115  22.0671  22.7193  23.0110  23.6882  23.8142

     occupation numbers 
     1.0000   1.0000   1.0000   1.0000   0.0000   0.0000   0.0000   0.0000
     0.0000   0.0000   0.0000   0.0000   0.0000   0.0000   0.0000   0.0000
     0.0000   0.0000   0.0000   0.0000   0.0000   0.0000   0.0000   0.0000
     0.0000   0.0000   0.0000   0.0000   0.0000   0.0000   0.0000   0.0000
     0.0000   0.0000   0.0000   0.0000   0.0000   0.0000   0.0000   0.0000

          k =-0.1389-0.3689 0.0000 ( 11932 PWs)   bands (ev):

   -15.9707  -7.3361  -5.2894  -4.4251   2.0971   2.3389   4.5604   5.0376
     5.2056   6.3697   7.2235   8.4133   8.9614  10.4260  11.0429  11.6345
    12.3683  12.5232  13.1595  13.7087  13.8385  14.6430  14.9241  15.4579
    15.6027  17.0401  17.5982  18.3539  18.6204  19.5317  19.5548  20.0982
    20.4855  21.4930  21.9787  22.3343  22.9819  23.1335  23.8546  24.1850

     occupation numbers 
     1.0000   1.0000   1.0000   1.0000   0.0000   0.0000   0.0000   0.0000
     0.0000   0.0000   0.0000   0.0000   0.0000   0.0000   0.0000   0.0000
     0.0000   0.0000   0.0000   0.0000   0.0000   0.0000   0.0000   0.0000
     0.0000   0.0000   0.0000   0.0000   0.0000   0.0000   0.0000   0.0000
     0.0000   0.0000   0.0000   0.0000   0.0000   0.0000   0.0000   0.0000

          k =-0.1389-0.3047 0.0000 ( 11926 PWs)   bands (ev):

   -16.2077  -6.8350  -5.0539  -4.7580   1.5209   2.3657   3.9650   4.6666
     5.4090   5.7860   7.1643   8.3968   8.8625  10.4401  11.0429  12.1460
    13.0651  13.1688  13.9528  14.2265  14.2397  15.1003  15.2881  16.6989
    16.9215  17.4871  17.6759  18.1236  18.1536  19.2354  19.8990  20.8567
    20.9799  21.8899  22.1550  22.6951  23.2209  23.7574  24.0881  24.2415

     occupation numbers 
     1.0000   1.0000   1.0000   1.0000   0.0000   0.0000   0.0000   0.0000
     0.0000   0.0000   0.0000   0.0000   0.0000   0.0000   0.0000   0.0000
     0.0000   0.0000   0.0000   0.0000   0.0000   0.0000   0.0000   0.0000
     0.0000   0.0000   0.0000   0.0000   0.0000   0.0000   0.0000   0.0000
     0.0000   0.0000   0.0000   0.0000   0.0000   0.0000   0.0000   0.0000

          k =-0.1389-0.2406 0.0000 ( 11891 PWs)   bands (ev):

   -16.4328  -6.3088  -5.0625  -4.8038   0.9903   2.2694   3.4309   4.4194
     5.1025   5.9053   6.9964   7.8925   9.7048  10.0429  11.0433  11.8607
    13.3227  14.2197  14.4650  15.5831  15.6760  15.7637  15.8820  16.9945
    17.5599  17.7267  18.2164  18.3621  18.7561  19.1018  19.3905  21.4198
    22.0011  22.3547  22.8291  22.8519  23.5469  23.6960  24.2722  24.3526

     occupation numbers 
     1.0000   1.0000   1.0000   1.0000   0.0000   0.0000   0.0000   0.0000
     0.0000   0.0000   0.0000   0.0000   0.0000   0.0000   0.0000   0.0000
     0.0000   0.0000   0.0000   0.0000   0.0000   0.0000   0.0000   0.0000
     0.0000   0.0000   0.0000   0.0000   0.0000   0.0000   0.0000   0.0000
     0.0000   0.0000   0.0000   0.0000   0.0000   0.0000   0.0000   0.0000

          k =-0.1389-0.1764 0.0000 ( 11884 PWs)   bands (ev):

   -16.6235  -5.8015  -5.3134  -4.5804   0.5367   2.1130   3.0074   4.2546
     4.6540   6.2845   6.8918   7.5478   9.5546  10.3531  11.4487  11.4853
    13.3059  14.8511  15.6872  16.1987  16.3290  16.6891  16.8838  17.3393
    17.6272  18.1791  18.4347  19.1100  19.3269  20.1894  20.2431  21.3528
    21.4853  22.6321  22.7901  23.0892  23.1188  23.3831  24.3815  24.4002

     occupation numbers 
     1.0000   1.0000   1.0000   1.0000   0.0000   0.0000   0.0000   0.0000
     0.0000   0.0000   0.0000   0.0000   0.0000   0.0000   0.0000   0.0000
     0.0000   0.0000   0.0000   0.0000   0.0000   0.0000   0.0000   0.0000
     0.0000   0.0000   0.0000   0.0000   0.0000   0.0000   0.0000   0.0000
     0.0000   0.0000   0.0000   0.0000   0.0000   0.0000   0.0000   0.0000

          k =-0.1389-0.1123 0.0000 ( 11897 PWs)   bands (ev):

   -16.7643  -5.4951  -5.3598  -4.4292   0.1883   1.9664   2.7073   4.1411
     4.3272   6.5615   6.8503   7.4183   9.1367  10.5744  11.1072  12.3741
    13.2862  15.1013  15.8464  16.3210  17.2080  17.2146  17.6496  17.8618
    18.3156  19.4231  19.5121  19.7555  19.7643  20.4848  20.4920  21.3726
    21.4050  22.1560  22.2616  22.8885  23.3201  23.9522  23.9672  24.3339

     occupation numbers 
     1.0000   1.0000   1.0000   1.0000   0.0000   0.0000   0.0000   0.0000
     0.0000   0.0000   0.0000   0.0000   0.0000   0.0000   0.0000   0.0000
     0.0000   0.0000   0.0000   0.0000   0.0000   0.0000   0.0000   0.0000
     0.0000   0.0000   0.0000   0.0000   0.0000   0.0000   0.0000   0.0000
     0.0000   0.0000   0.0000   0.0000   0.0000   0.0000   0.0000   0.0000

          k =-0.0833-0.0160 0.0000 ( 11891 PWs)   bands (ev):

   -16.9626  -5.7467  -4.5418  -4.2864  -0.3648   1.7307   2.2934   3.8610
     3.9738   6.5637   6.8285   7.9088   8.5260  10.5424  10.7917  13.7372
    14.0272  14.1038  16.4936  17.0208  17.3705  18.5849  18.7519  19.2773
    19.6458  20.2825  20.6249  20.7241  20.9643  21.2542  21.9498  22.2147
    22.5662  22.6645  22.8752  23.3739  23.5689  23.6222  23.6706  24.0180

     occupation numbers 
     1.0000   1.0000   1.0000   1.0000   0.0000   0.0000   0.0000   0.0000
     0.0000   0.0000   0.0000   0.0000   0.0000   0.0000   0.0000   0.0000
     0.0000   0.0000   0.0000   0.0000   0.0000   0.0000   0.0000   0.0000
     0.0000   0.0000   0.0000   0.0000   0.0000   0.0000   0.0000   0.0000
     0.0000   0.0000   0.0000   0.0000   0.0000   0.0000   0.0000   0.0000

          k =-0.0833 0.0481 0.0000 ( 11897 PWs)   bands (ev):

   -16.9456  -5.7253  -4.6228  -4.2973  -0.3113   1.7519   2.3290   3.9028
     3.9888   6.5890   6.8299   7.8163   8.5779  10.6011  10.7785  13.5877
    13.9946  14.1466  16.4659  17.0166  17.4061  18.2244  18.8882  19.4170
    19.4229  19.7400  20.4542  20.5681  21.3986  21.4356  21.4794  21.6261
    22.3006  22.5244  22.7095  23.3352  23.3710  24.1372  24.1382  24.2045

     occupation numbers 
     1.0000   1.0000   1.0000   1.0000   0.0000   0.0000   0.0000   0.0000
     0.0000   0.0000   0.0000   0.0000   0.0000   0.0000   0.0000   0.0000
     0.0000   0.0000   0.0000   0.0000   0.0000   0.0000   0.0000   0.0000
     0.0000   0.0000   0.0000   0.0000   0.0000   0.0000   0.0000   0.0000
     0.0000   0.0000   0.0000   0.0000   0.0000   0.0000   0.0000   0.0000

          k =-0.0833 0.1123 0.0000 ( 11889 PWs)   bands (ev):

   -16.8619  -5.6196  -4.9766  -4.3691  -0.0659   1.8539   2.5042   4.0613
     4.1062   6.6725   6.8390   7.4742   8.8401  10.7135  10.8543  12.8052
    13.6999  14.6723  16.6935  16.7794  17.2200  17.5340  18.1894  18.6302
    18.9242  19.1689  19.4616  19.8222  20.8781  20.9261  21.5136  21.9407
    22.1181  22.4821  22.6761  22.7448  23.0035  23.6755  23.8773  24.0771

     occupation numbers 
     1.0000   1.0000   1.0000   1.0000   0.0000   0.0000   0.0000   0.0000
     0.0000   0.0000   0.0000   0.0000   0.0000   0.0000   0.0000   0.0000
     0.0000   0.0000   0.0000   0.0000   0.0000   0.0000   0.0000   0.0000
     0.0000   0.0000   0.0000   0.0000   0.0000   0.0000   0.0000   0.0000
     0.0000   0.0000   0.0000   0.0000   0.0000   0.0000   0.0000   0.0000

          k =-0.0833 0.1764 0.0000 ( 11880 PWs)   bands (ev):

   -16.7165  -5.5019  -5.4338  -4.5004   0.3129   2.0188   2.8096   4.1806
     4.4474   6.5017   6.8655   7.3970   9.2833  10.5502  11.2296  11.8311
    13.4318  15.2583  15.8383  16.6100  16.7248  17.1678  17.4315  17.4537
    17.9282  18.2613  18.3976  19.7506  20.0812  20.3498  20.5502  21.3392
    21.8023  22.6151  22.9474  23.0973  23.1698  23.7548  24.0945  24.1500

     occupation numbers 
     1.0000   1.0000   1.0000   1.0000   0.0000   0.0000   0.0000   0.0000
     0.0000   0.0000   0.0000   0.0000   0.0000   0.0000   0.0000   0.0000
     0.0000   0.0000   0.0000   0.0000   0.0000   0.0000   0.0000   0.0000
     0.0000   0.0000   0.0000   0.0000   0.0000   0.0000   0.0000   0.0000
     0.0000   0.0000   0.0000   0.0000   0.0000   0.0000   0.0000   0.0000

          k =-0.0833 0.2406 0.0000 ( 11888 PWs)   bands (ev):

   -16.5190  -6.1133  -5.1767  -4.6657   0.7782   2.2041   3.2329   4.3386
     4.8657   6.0682   6.9312   7.7629   9.8466  10.0418  11.3069  11.6767
    13.1848  14.1209  15.4437  15.4978  15.7080  16.5967  16.6836  17.3037
    17.3245  18.1080  18.2322  18.5802  18.9337  19.9498  20.0500  21.2337
    21.3674  22.2343  22.5096  22.6898  22.9517  23.4526  24.3323  24.4372

     occupation numbers 
     1.0000   1.0000   1.0000   1.0000   0.0000   0.0000   0.0000   0.0000
     0.0000   0.0000   0.0000   0.0000   0.0000   0.0000   0.0000   0.0000
     0.0000   0.0000   0.0000   0.0000   0.0000   0.0000   0.0000   0.0000
     0.0000   0.0000   0.0000   0.0000   0.0000   0.0000   0.0000   0.0000
     0.0000   0.0000   0.0000   0.0000   0.0000   0.0000   0.0000   0.0000

          k =-0.0833 0.3047 0.0000 ( 11909 PWs)   bands (ev):

   -16.2850  -6.7427  -4.8633  -4.8396   1.3013   2.3307   3.7562   4.5547
     5.1155   5.9189   7.0528   8.2925   9.3378  10.4355  11.2407  11.9713
    12.8633  12.9140  13.9863  14.0130  15.1890  16.0550  16.5926  16.6234
    16.8145  17.4519  17.5321  18.7293  19.0943  19.4647  19.9693  20.8026
    20.8529  21.2410  21.7834  22.1007  23.0000  23.0875  24.1285  24.1859

     occupation numbers 
     1.0000   1.0000   1.0000   1.0000   0.0000   0.0000   0.0000   0.0000
     0.0000   0.0000   0.0000   0.0000   0.0000   0.0000   0.0000   0.0000
     0.0000   0.0000   0.0000   0.0000   0.0000   0.0000   0.0000   0.0000
     0.0000   0.0000   0.0000   0.0000   0.0000   0.0000   0.0000   0.0000
     0.0000   0.0000   0.0000   0.0000   0.0000   0.0000   0.0000   0.0000

          k =-0.0833 0.3689 0.0000 ( 11929 PWs)   bands (ev):

   -16.0373  -7.3326  -5.0001  -4.5187   1.8497   2.3092   4.3075   4.8861
     5.0355   6.3490   7.1863   8.8286   8.8987  10.6830  11.1770  11.4237
    12.1743  12.3041  13.1977  13.3420  14.9022  15.0529  15.3873  15.8222
    16.3095  17.3764  18.2170  18.7964  18.8746  19.1365  19.4695  19.9023
    20.3207  21.0607  21.5121  21.9415  22.5347  23.2249  23.5920  23.9301

     occupation numbers 
     1.0000   1.0000   1.0000   1.0000   0.0000   0.0000   0.0000   0.0000
     0.0000   0.0000   0.0000   0.0000   0.0000   0.0000   0.0000   0.0000
     0.0000   0.0000   0.0000   0.0000   0.0000   0.0000   0.0000   0.0000
     0.0000   0.0000   0.0000   0.0000   0.0000   0.0000   0.0000   0.0000
     0.0000   0.0000   0.0000   0.0000   0.0000   0.0000   0.0000   0.0000

          k =-0.0833 0.4330 0.0000 ( 11928 PWs)   bands (ev):

   -15.8070  -7.8293  -5.1306  -4.1830   2.1336   2.3582   4.5547   5.3520
     5.3882   6.9016   7.2361   8.9400   8.9951  10.1241  10.4874  10.9825
    11.5747  11.8000  13.2838  13.3608  14.0764  14.4623  14.8320  15.4739
    16.0408  17.1548  18.0399  18.3549  18.7013  18.9620  19.0267  19.6691
    20.3972  20.8285  21.4578  21.5203  22.3081  23.1703  23.2331  23.8633

     occupation numbers 
     1.0000   1.0000   1.0000   1.0000   0.0000   0.0000   0.0000   0.0000
     0.0000   0.0000   0.0000   0.0000   0.0000   0.0000   0.0000   0.0000
     0.0000   0.0000   0.0000   0.0000   0.0000   0.0000   0.0000   0.0000
     0.0000   0.0000   0.0000   0.0000   0.0000   0.0000   0.0000   0.0000
     0.0000   0.0000   0.0000   0.0000   0.0000   0.0000   0.0000   0.0000

          k =-0.0833 0.4972 0.0000 ( 11925 PWs)   bands (ev):

   -15.6319  -8.1802  -5.2190  -3.9147   1.9129   2.7176   4.6720   5.8395
     6.1198   7.2433   7.3269   8.5814   9.1766   9.4679   9.6240  10.7576
    11.2667  11.8728  12.6660  12.9138  14.2555  14.5255  14.9398  15.2712
    15.9365  16.5043  17.1780  17.8206  18.5352  18.9417  19.2163  20.1929
    20.5305  20.6987  21.1470  21.4730  21.9009  22.9159  22.9842  23.1356

     occupation numbers 
     1.0000   1.0000   1.0000   1.0000   0.0000   0.0000   0.0000   0.0000
     0.0000   0.0000   0.0000   0.0000   0.0000   0.0000   0.0000   0.0000
     0.0000   0.0000   0.0000   0.0000   0.0000   0.0000   0.0000   0.0000
     0.0000   0.0000   0.0000   0.0000   0.0000   0.0000   0.0000   0.0000
     0.0000   0.0000   0.0000   0.0000   0.0000   0.0000   0.0000   0.0000

          k =-0.0833-0.5934 0.0000 ( 11923 PWs)   bands (ev):

   -15.5486  -8.3404  -5.2581  -3.7816   1.7854   2.8627   4.8252   6.0980
     6.6391   7.4095   7.6695   8.0376   8.4580   9.1414  10.0626  10.7569
    10.7902  12.0888  12.2936  12.3995  14.6812  14.7579  15.2452  15.2602
    15.7385  15.9113  16.5742  17.6748  18.4555  18.9138  19.3207  20.2729
    20.7094  21.0124  21.2256  21.4920  21.5503  22.3503  22.5397  22.9940

     occupation numbers 
     1.0000   1.0000   1.0000   1.0000   0.0000   0.0000   0.0000   0.0000
     0.0000   0.0000   0.0000   0.0000   0.0000   0.0000   0.0000   0.0000
     0.0000   0.0000   0.0000   0.0000   0.0000   0.0000   0.0000   0.0000
     0.0000   0.0000   0.0000   0.0000   0.0000   0.0000   0.0000   0.0000
     0.0000   0.0000   0.0000   0.0000   0.0000   0.0000   0.0000   0.0000

          k =-0.0833-0.5292 0.0000 ( 11927 PWs)   bands (ev):

   -15.5770  -8.2863  -5.2450  -3.8274   1.8303   2.8161   4.7605   6.0111
     6.4550   7.3002   7.4764   8.3234   8.8092   9.2167   9.8066  10.7707
    11.0328  11.9537  12.4143  12.6306  14.5319  14.6379  15.0893  15.2311
    15.9215  16.0878  16.8110  17.7185  18.4831  18.9229  19.2859  20.2791
    20.6325  20.8636  21.1349  21.5059  21.6534  22.5906  22.7647  23.0278

     occupation numbers 
     1.0000   1.0000   1.0000   1.0000   0.0000   0.0000   0.0000   0.0000
     0.0000   0.0000   0.0000   0.0000   0.0000   0.0000   0.0000   0.0000
     0.0000   0.0000   0.0000   0.0000   0.0000   0.0000   0.0000   0.0000
     0.0000   0.0000   0.0000   0.0000   0.0000   0.0000   0.0000   0.0000
     0.0000   0.0000   0.0000   0.0000   0.0000   0.0000   0.0000   0.0000

          k =-0.0833-0.4651 0.0000 ( 11929 PWs)   bands (ev):

   -15.7101  -8.0260  -5.1806  -4.0361   2.0197   2.5634   4.6005   5.6071
     5.7424   7.1190   7.2573   8.8115   9.1098   9.8300   9.9640  10.7695
    11.4362  11.8333  13.0117  13.2010  14.0489  14.4002  14.8624  15.3550
    15.9711  16.8847  17.6048  18.0190  18.6093  18.9651  19.1207  19.9230
    20.4490  20.7214  21.2862  21.4591  22.1373  23.0804  23.1218  23.4795

     occupation numbers 
     1.0000   1.0000   1.0000   1.0000   0.0000   0.0000   0.0000   0.0000
     0.0000   0.0000   0.0000   0.0000   0.0000   0.0000   0.0000   0.0000
     0.0000   0.0000   0.0000   0.0000   0.0000   0.0000   0.0000   0.0000
     0.0000   0.0000   0.0000   0.0000   0.0000   0.0000   0.0000   0.0000
     0.0000   0.0000   0.0000   0.0000   0.0000   0.0000   0.0000   0.0000

          k =-0.0833-0.4009 0.0000 ( 11914 PWs)   bands (ev):

   -15.9177  -7.5959  -5.0700  -4.3466   2.1151   2.2358   4.4869   5.1054
     5.1244   6.6316   7.2221   8.8571   9.0009  10.4076  10.9438  11.2947
    11.7785  11.8854  13.3060  13.3278  14.4774  14.8111  14.8629  15.6273
    16.1533  17.3047  18.3469  18.7335  18.7558  18.9716  19.0424  19.6423
    20.3588  20.9511  21.4706  21.7823  22.4024  23.2326  23.3784  23.9599

     occupation numbers 
     1.0000   1.0000   1.0000   1.0000   0.0000   0.0000   0.0000   0.0000
     0.0000   0.0000   0.0000   0.0000   0.0000   0.0000   0.0000   0.0000
     0.0000   0.0000   0.0000   0.0000   0.0000   0.0000   0.0000   0.0000
     0.0000   0.0000   0.0000   0.0000   0.0000   0.0000   0.0000   0.0000
     0.0000   0.0000   0.0000   0.0000   0.0000   0.0000   0.0000   0.0000

          k =-0.0833-0.3368 0.0000 ( 11918 PWs)   bands (ev):

   -16.1611  -7.0460  -4.9227  -4.6928   1.5753   2.3420   4.0402   4.7026
     5.0749   6.0911   7.1250   8.5729   9.0664  10.6646  11.2370  11.7200
    12.6327  12.6431  13.3815  13.5111  15.0205  15.6395  16.0239  16.1016
    16.5101  17.4101  17.8795  18.7754  19.0283  19.2989  19.9021  20.3687
    20.3868  21.1298  21.6058  21.9881  22.7954  23.1286  23.8712  23.9928

     occupation numbers 
     1.0000   1.0000   1.0000   1.0000   0.0000   0.0000   0.0000   0.0000
     0.0000   0.0000   0.0000   0.0000   0.0000   0.0000   0.0000   0.0000
     0.0000   0.0000   0.0000   0.0000   0.0000   0.0000   0.0000   0.0000
     0.0000   0.0000   0.0000   0.0000   0.0000   0.0000   0.0000   0.0000
     0.0000   0.0000   0.0000   0.0000   0.0000   0.0000   0.0000   0.0000

          k =-0.0833-0.2726 0.0000 ( 11892 PWs)   bands (ev):

   -16.4054  -6.4295  -5.0257  -4.7531   1.0342   2.2810   3.4839   4.4363
     5.0441   5.9173   6.9854   8.0166   9.6788  10.1470  11.2475  11.8858
    13.0635  13.4143  14.6761  14.7788  15.3998  16.3372  16.8613  17.1123
    17.1336  17.5964  17.6401  18.6272  19.0248  19.6850  19.9708  21.0605
    21.2015  21.6989  22.1006  22.3315  22.9091  23.3375  24.2752  24.4361

     occupation numbers 
     1.0000   1.0000   1.0000   1.0000   0.0000   0.0000   0.0000   0.0000
     0.0000   0.0000   0.0000   0.0000   0.0000   0.0000   0.0000   0.0000
     0.0000   0.0000   0.0000   0.0000   0.0000   0.0000   0.0000   0.0000
     0.0000   0.0000   0.0000   0.0000   0.0000   0.0000   0.0000   0.0000
     0.0000   0.0000   0.0000   0.0000   0.0000   0.0000   0.0000   0.0000

          k =-0.0833-0.2085 0.0000 ( 11884 PWs)   bands (ev):

   -16.6235  -5.8015  -5.3134  -4.5804   0.5367   2.1130   3.0074   4.2546
     4.6540   6.2845   6.8918   7.5478   9.5546  10.3531  11.4487  11.4853
    13.3059  14.8511  15.6872  16.1987  16.3290  16.6891  16.8838  17.3393
    17.6272  18.1791  18.4347  19.1100  19.3269  20.1894  20.2431  21.3528
    21.4853  22.6321  22.7901  23.0892  23.1188  23.3831  24.3815  24.4002

     occupation numbers 
     1.0000   1.0000   1.0000   1.0000   0.0000   0.0000   0.0000   0.0000
     0.0000   0.0000   0.0000   0.0000   0.0000   0.0000   0.0000   0.0000
     0.0000   0.0000   0.0000   0.0000   0.0000   0.0000   0.0000   0.0000
     0.0000   0.0000   0.0000   0.0000   0.0000   0.0000   0.0000   0.0000
     0.0000   0.0000   0.0000   0.0000   0.0000   0.0000   0.0000   0.0000

          k =-0.0833-0.1443 0.0000 ( 11891 PWs)   bands (ev):

   -16.7964  -5.5363  -5.2235  -4.4288   0.1103   1.9304   2.6413   4.1159
     4.2620   6.6475   6.8490   7.3621   9.0425  10.6541  11.0296  12.2997
    13.5630  15.0093  16.3842  16.8801  17.0481  17.0795  17.9010  18.1197
    18.4316  18.5941  18.6591  19.9317  20.6669  20.7707  20.9051  21.5963
    22.0189  22.3949  22.6975  23.1202  23.4252  23.6346  23.6379  24.0616

     occupation numbers 
     1.0000   1.0000   1.0000   1.0000   0.0000   0.0000   0.0000   0.0000
     0.0000   0.0000   0.0000   0.0000   0.0000   0.0000   0.0000   0.0000
     0.0000   0.0000   0.0000   0.0000   0.0000   0.0000   0.0000   0.0000
     0.0000   0.0000   0.0000   0.0000   0.0000   0.0000   0.0000   0.0000
     0.0000   0.0000   0.0000   0.0000   0.0000   0.0000   0.0000   0.0000

          k =-0.0833-0.0802 0.0000 ( 11893 PWs)   bands (ev):

   -16.9119  -5.6828  -4.7722  -4.3245  -0.2091   1.7935   2.3996   3.9852
     4.0184   6.6329   6.8331   7.6548   8.6834  10.7088  10.7527  13.2637
    13.8447  14.3706  16.5274  16.9674  17.3531  17.8628  18.8446  19.0175
    19.1830  19.3568  20.2972  20.3212  20.7634  20.9653  21.7927  21.9926
    22.1620  22.3250  22.5598  23.0482  23.4081  23.7440  23.8442  24.2273

     occupation numbers 
     1.0000   1.0000   1.0000   1.0000   0.0000   0.0000   0.0000   0.0000
     0.0000   0.0000   0.0000   0.0000   0.0000   0.0000   0.0000   0.0000
     0.0000   0.0000   0.0000   0.0000   0.0000   0.0000   0.0000   0.0000
     0.0000   0.0000   0.0000   0.0000   0.0000   0.0000   0.0000   0.0000
     0.0000   0.0000   0.0000   0.0000   0.0000   0.0000   0.0000   0.0000

          k =-0.0278 0.0160 0.0000 ( 11919 PWs)   bands (ev):

   -17.0140  -5.8111  -4.2860  -4.2467  -0.5393   1.6656   2.1850   3.7318
     3.9271   6.4720   6.8240   8.2654   8.3655  10.3316  10.8247  13.6369
    14.3739  14.4399  16.2655  16.9688  17.8366  18.2553  19.0010  19.8076
    20.0817  21.2428  21.4796  21.6509  21.8014  22.1676  22.2299  22.4027
    22.5721  22.6192  23.0590  23.0697  23.5901  23.6258  23.7469  23.7540

     occupation numbers 
     1.0000   1.0000   1.0000   1.0000   0.0000   0.0000   0.0000   0.0000
     0.0000   0.0000   0.0000   0.0000   0.0000   0.0000   0.0000   0.0000
     0.0000   0.0000   0.0000   0.0000   0.0000   0.0000   0.0000   0.0000
     0.0000   0.0000   0.0000   0.0000   0.0000   0.0000   0.0000   0.0000
     0.0000   0.0000   0.0000   0.0000   0.0000   0.0000   0.0000   0.0000

          k =-0.0278 0.0802 0.0000 ( 11891 PWs)   bands (ev):

   -16.9626  -5.7467  -4.5418  -4.2864  -0.3648   1.7307   2.2934   3.8610
     3.9738   6.5637   6.8285   7.9088   8.5260  10.5424  10.7917  13.7372
    14.0272  14.1038  16.4936  17.0208  17.3705  18.5849  18.7519  19.2773
    19.6458  20.2825  20.6249  20.7241  20.9643  21.2542  21.9498  22.2147
    22.5662  22.6645  22.8752  23.3739  23.5689  23.6222  23.6706  24.0180

     occupation numbers 
     1.0000   1.0000   1.0000   1.0000   0.0000   0.0000   0.0000   0.0000
     0.0000   0.0000   0.0000   0.0000   0.0000   0.0000   0.0000   0.0000
     0.0000   0.0000   0.0000   0.0000   0.0000   0.0000   0.0000   0.0000
     0.0000   0.0000   0.0000   0.0000   0.0000   0.0000   0.0000   0.0000
     0.0000   0.0000   0.0000   0.0000   0.0000   0.0000   0.0000   0.0000

          k =-0.0278 0.1443 0.0000 ( 11893 PWs)   bands (ev):

   -16.8454  -5.5987  -5.0497  -4.3728  -0.0220   1.8734   2.5382   4.0749
     4.1431   6.6610   6.8400   7.4548   8.8883  10.6866  10.8982  12.7887
    13.5661  14.7623  16.4547  16.5244  17.4746  17.5038  18.2289  18.3041
    18.6122  19.4731  19.8941  20.0437  20.2894  20.7360  21.1197  21.7079
    21.7562  22.1626  22.5265  22.8838  23.3839  23.8605  23.9732  24.2995

     occupation numbers 
     1.0000   1.0000   1.0000   1.0000   0.0000   0.0000   0.0000   0.0000
     0.0000   0.0000   0.0000   0.0000   0.0000   0.0000   0.0000   0.0000
     0.0000   0.0000   0.0000   0.0000   0.0000   0.0000   0.0000   0.0000
     0.0000   0.0000   0.0000   0.0000   0.0000   0.0000   0.0000   0.0000
     0.0000   0.0000   0.0000   0.0000   0.0000   0.0000   0.0000   0.0000

          k =-0.0278 0.2085 0.0000 ( 11901 PWs)   bands (ev):

   -16.6697  -5.6903  -5.3734  -4.4917   0.4167   2.0664   2.9051   4.2151
     4.5267   6.3539   6.8667   7.5444   9.4235  10.3941  11.3333  12.0703
    13.0178  14.7692  15.7840  15.9824  16.4156  16.6515  17.4290  17.9946
    18.1962  18.9624  19.0841  19.1984  19.3296  20.0790  20.5737  21.0224
    21.3245  21.9430  22.0284  22.8479  22.9195  23.7481  23.7733  24.4252

     occupation numbers 
     1.0000   1.0000   1.0000   1.0000   0.0000   0.0000   0.0000   0.0000
     0.0000   0.0000   0.0000   0.0000   0.0000   0.0000   0.0000   0.0000
     0.0000   0.0000   0.0000   0.0000   0.0000   0.0000   0.0000   0.0000
     0.0000   0.0000   0.0000   0.0000   0.0000   0.0000   0.0000   0.0000
     0.0000   0.0000   0.0000   0.0000   0.0000   0.0000   0.0000   0.0000

          k =-0.0278 0.2726 0.0000 ( 11886 PWs)   bands (ev):

   -16.4478  -6.3740  -5.0821  -4.6258   0.9139   2.2494   3.3777   4.3883
     4.8782   5.9918   6.9318   8.0048   9.8679  10.0866  11.7893  11.8104
    12.5678  13.2953  14.4915  14.6881  16.2916  16.3963  17.0831  17.4460
    17.4859  18.1947  18.3380  18.5649  19.0835  19.8367  20.2610  20.4919
    21.2897  21.3272  21.5983  21.8175  22.7234  23.1840  23.4254  24.4365

     occupation numbers 
     1.0000   1.0000   1.0000   1.0000   0.0000   0.0000   0.0000   0.0000
     0.0000   0.0000   0.0000   0.0000   0.0000   0.0000   0.0000   0.0000
     0.0000   0.0000   0.0000   0.0000   0.0000   0.0000   0.0000   0.0000
     0.0000   0.0000   0.0000   0.0000   0.0000   0.0000   0.0000   0.0000
     0.0000   0.0000   0.0000   0.0000   0.0000   0.0000   0.0000   0.0000

          k =-0.0278 0.3368 0.0000 ( 11902 PWs)   bands (ev):

   -16.1988  -7.0357  -4.7578  -4.7444   1.4425   2.3214   3.9183   4.6341
     4.9285   6.1252   7.0579   8.5384   9.3890  10.8031  11.5453  11.6764
    12.3292  12.5562  13.0637  13.2572  15.4538  15.8193  16.4357  16.7333
    17.5113  18.0006  18.0614  18.2378  19.0680  19.5858  19.8333  20.1050
    20.3761  20.5242  21.2582  21.3645  22.7281  22.7688  23.7663  24.1897

     occupation numbers 
     1.0000   1.0000   1.0000   1.0000   0.0000   0.0000   0.0000   0.0000
     0.0000   0.0000   0.0000   0.0000   0.0000   0.0000   0.0000   0.0000
     0.0000   0.0000   0.0000   0.0000   0.0000   0.0000   0.0000   0.0000
     0.0000   0.0000   0.0000   0.0000   0.0000   0.0000   0.0000   0.0000
     0.0000   0.0000   0.0000   0.0000   0.0000   0.0000   0.0000   0.0000

          k =-0.0278 0.4009 0.0000 ( 11917 PWs)   bands (ev):

   -15.9498  -7.6204  -4.8729  -4.3920   1.9537   2.2088   4.3293   5.0220
     5.0470   6.6130   7.2192   8.9186   9.1853  10.4691  11.2413  11.4676
    11.5961  11.6775  12.8661  13.2578  14.1820  14.7023  16.1349  16.5091
    17.4418  17.7335  17.7867  18.6213  18.8007  18.9274  19.2026  19.4392
    19.9278  20.2627  21.1381  21.3351  22.4041  22.6470  23.2370  23.8397

     occupation numbers 
     1.0000   1.0000   1.0000   1.0000   0.0000   0.0000   0.0000   0.0000
     0.0000   0.0000   0.0000   0.0000   0.0000   0.0000   0.0000   0.0000
     0.0000   0.0000   0.0000   0.0000   0.0000   0.0000   0.0000   0.0000
     0.0000   0.0000   0.0000   0.0000   0.0000   0.0000   0.0000   0.0000
     0.0000   0.0000   0.0000   0.0000   0.0000   0.0000   0.0000   0.0000

          k =-0.0278 0.4651 0.0000 ( 11921 PWs)   bands (ev):

   -15.7369  -8.0750  -4.9597  -4.0747   1.9730   2.3544   4.4806   5.5402
     5.6700   7.0553   7.3600   8.7396   9.2567   9.7450  10.2334  10.7900
    11.2728  12.1316  12.7593  13.0314  13.5928  14.4896  15.9896  16.2227
    17.1453  17.3132  17.5677  17.8536  18.2393  19.0171  19.1290  19.6205
    19.9684  20.1480  21.0703  21.0938  21.8419  22.4934  22.6697  23.5011

     occupation numbers 
     1.0000   1.0000   1.0000   1.0000   0.0000   0.0000   0.0000   0.0000
     0.0000   0.0000   0.0000   0.0000   0.0000   0.0000   0.0000   0.0000
     0.0000   0.0000   0.0000   0.0000   0.0000   0.0000   0.0000   0.0000
     0.0000   0.0000   0.0000   0.0000   0.0000   0.0000   0.0000   0.0000
     0.0000   0.0000   0.0000   0.0000   0.0000   0.0000   0.0000   0.0000

          k =-0.0278 0.5292 0.0000 ( 11924 PWs)   bands (ev):

   -15.6001  -8.3493  -5.0104  -3.8605   1.7666   2.5627   4.6930   6.0243
     6.3685   7.2019   7.5264   8.2510   8.8628   9.1549  10.1562  10.7139
    11.0471  11.8659  12.3642  12.5740  14.1890  14.9107  15.6846  15.9889
    16.7200  16.8560  17.2693  17.6140  18.0731  18.8950  19.0931  19.8464
    20.2080  20.4860  20.9579  21.1720  21.3709  22.0146  22.2032  22.7988

     occupation numbers 
     1.0000   1.0000   1.0000   1.0000   0.0000   0.0000   0.0000   0.0000
     0.0000   0.0000   0.0000   0.0000   0.0000   0.0000   0.0000   0.0000
     0.0000   0.0000   0.0000   0.0000   0.0000   0.0000   0.0000   0.0000
     0.0000   0.0000   0.0000   0.0000   0.0000   0.0000   0.0000   0.0000
     0.0000   0.0000   0.0000   0.0000   0.0000   0.0000   0.0000   0.0000

          k =-0.0278-0.5613 0.0000 ( 11928 PWs)   bands (ev):

   -15.5708  -8.4063  -5.0207  -3.8135   1.7177   2.5993   4.7721   6.1515
     6.5364   7.3230   7.6206   7.9487   8.6100   9.0916  10.3937  10.7066
    10.8891  11.6207  12.2972  12.5835  14.4638  15.0431  15.4096  16.0317
    16.5344  16.7750  17.1937  17.6177  18.0481  18.8658  19.0827  19.8803
    20.2832  20.4920  21.1169  21.2617  21.3284  21.7302  22.1135  22.4956

     occupation numbers 
     1.0000   1.0000   1.0000   1.0000   0.0000   0.0000   0.0000   0.0000
     0.0000   0.0000   0.0000   0.0000   0.0000   0.0000   0.0000   0.0000
     0.0000   0.0000   0.0000   0.0000   0.0000   0.0000   0.0000   0.0000
     0.0000   0.0000   0.0000   0.0000   0.0000   0.0000   0.0000   0.0000
     0.0000   0.0000   0.0000   0.0000   0.0000   0.0000   0.0000   0.0000

          k =-0.0278-0.4972 0.0000 ( 11908 PWs)   bands (ev):

   -15.6566  -8.2375  -4.9899  -3.9502   1.8564   2.4835   4.5804   5.8044
     6.0429   7.1559   7.4330   8.5193   9.1639   9.3861  10.0208  10.7201
    11.1650  12.2851  12.3144  12.7335  13.8631  14.6991  15.9710  15.9883
    16.9519  17.0368  17.4343  17.6365  18.1293  18.9494  19.1105  19.7885
    20.0849  20.3022  20.9603  21.0872  21.5818  22.2977  22.3928  23.1826

     occupation numbers 
     1.0000   1.0000   1.0000   1.0000   0.0000   0.0000   0.0000   0.0000
     0.0000   0.0000   0.0000   0.0000   0.0000   0.0000   0.0000   0.0000
     0.0000   0.0000   0.0000   0.0000   0.0000   0.0000   0.0000   0.0000
     0.0000   0.0000   0.0000   0.0000   0.0000   0.0000   0.0000   0.0000
     0.0000   0.0000   0.0000   0.0000   0.0000   0.0000   0.0000   0.0000

          k =-0.0278-0.4330 0.0000 ( 11931 PWs)   bands (ev):

   -15.8364  -7.8673  -4.9204  -4.2250   2.0974   2.1748   4.4086   5.2709
     5.3185   6.8614   7.2928   8.9073   9.2050  10.0904  10.7181  11.0657
    11.3989  11.8802  12.9956  13.2699  13.6553  14.4295  16.0441  16.3865
    17.3037  17.5963  17.6354  18.2728  18.4579  19.0260  19.1478  19.3998
    19.9077  20.1666  21.0937  21.2357  22.1269  22.5960  22.9796  23.6874

     occupation numbers 
     1.0000   1.0000   1.0000   1.0000   0.0000   0.0000   0.0000   0.0000
     0.0000   0.0000   0.0000   0.0000   0.0000   0.0000   0.0000   0.0000
     0.0000   0.0000   0.0000   0.0000   0.0000   0.0000   0.0000   0.0000
     0.0000   0.0000   0.0000   0.0000   0.0000   0.0000   0.0000   0.0000
     0.0000   0.0000   0.0000   0.0000   0.0000   0.0000   0.0000   0.0000

          k =-0.0278-0.3689 0.0000 ( 11917 PWs)   bands (ev):

   -16.0722  -7.3410  -4.8183  -4.5674   1.7051   2.2879   4.1664   4.8079
     4.9252   6.3538   7.1383   8.7711   9.2454  10.9200  11.2467  11.5349
    12.0244  12.1863  12.7773  13.1158  14.8146  15.2186  16.2630  16.6139
    17.5377  17.8769  17.9033  18.4088  19.0219  19.2982  19.4740  19.6806
    20.0508  20.3854  21.1931  21.3660  22.6142  22.6837  23.4614  24.0817

     occupation numbers 
     1.0000   1.0000   1.0000   1.0000   0.0000   0.0000   0.0000   0.0000
     0.0000   0.0000   0.0000   0.0000   0.0000   0.0000   0.0000   0.0000
     0.0000   0.0000   0.0000   0.0000   0.0000   0.0000   0.0000   0.0000
     0.0000   0.0000   0.0000   0.0000   0.0000   0.0000   0.0000   0.0000
     0.0000   0.0000   0.0000   0.0000   0.0000   0.0000   0.0000   0.0000

          k =-0.0278-0.3047 0.0000 ( 11902 PWs)   bands (ev):

   -16.3252  -6.7111  -4.9175  -4.6931   1.1764   2.3061   3.6447   4.4973
     4.9444   5.9842   6.9872   8.2730   9.6039  10.4459  11.7589  11.8746
    12.4249  12.7350  13.7276  13.9036  15.9939  16.3109  16.7377  16.9638
    17.3484  18.1009  18.2252  18.3149  19.0764  19.7625  20.0625  20.3658
    20.8586  20.9114  21.3493  21.4681  22.7719  22.9490  23.7251  24.1205

     occupation numbers 
     1.0000   1.0000   1.0000   1.0000   0.0000   0.0000   0.0000   0.0000
     0.0000   0.0000   0.0000   0.0000   0.0000   0.0000   0.0000   0.0000
     0.0000   0.0000   0.0000   0.0000   0.0000   0.0000   0.0000   0.0000
     0.0000   0.0000   0.0000   0.0000   0.0000   0.0000   0.0000   0.0000
     0.0000   0.0000   0.0000   0.0000   0.0000   0.0000   0.0000   0.0000

          k =-0.0278-0.2406 0.0000 ( 11899 PWs)   bands (ev):

   -16.5635  -6.0312  -5.2350  -4.5580   0.6595   2.1647   3.1295   4.2966
     4.7225   6.1380   6.8925   7.7543   9.7425  10.1466  11.5691  11.8933
    12.7731  14.0220  15.2797  15.5150  16.1637  16.4377  17.2332  17.9787
    18.0102  18.3551  18.5421  18.8566  19.1474  19.8906  20.4563  20.7190
    21.4048  21.6249  21.9211  22.3664  22.6721  23.4684  23.4867  24.3708

     occupation numbers 
     1.0000   1.0000   1.0000   1.0000   0.0000   0.0000   0.0000   0.0000
     0.0000   0.0000   0.0000   0.0000   0.0000   0.0000   0.0000   0.0000
     0.0000   0.0000   0.0000   0.0000   0.0000   0.0000   0.0000   0.0000
     0.0000   0.0000   0.0000   0.0000   0.0000   0.0000   0.0000   0.0000
     0.0000   0.0000   0.0000   0.0000   0.0000   0.0000   0.0000   0.0000

          k =-0.0278-0.1764 0.0000 ( 11897 PWs)   bands (ev):

   -16.7643  -5.4951  -5.3598  -4.4292   0.1883   1.9664   2.7073   4.1411
     4.3272   6.5615   6.8503   7.4183   9.1367  10.5744  11.1072  12.3741
    13.2862  15.1013  15.8464  16.3210  17.2080  17.2146  17.6496  17.8618
    18.3156  19.4231  19.5121  19.7555  19.7643  20.4848  20.4920  21.3726
    21.4050  22.1560  22.2616  22.8885  23.3201  23.9522  23.9672  24.3339

     occupation numbers 
     1.0000   1.0000   1.0000   1.0000   0.0000   0.0000   0.0000   0.0000
     0.0000   0.0000   0.0000   0.0000   0.0000   0.0000   0.0000   0.0000
     0.0000   0.0000   0.0000   0.0000   0.0000   0.0000   0.0000   0.0000
     0.0000   0.0000   0.0000   0.0000   0.0000   0.0000   0.0000   0.0000
     0.0000   0.0000   0.0000   0.0000   0.0000   0.0000   0.0000   0.0000

          k =-0.0278-0.1123 0.0000 ( 11893 PWs)   bands (ev):

   -16.9119  -5.6828  -4.7722  -4.3245  -0.2091   1.7935   2.3996   3.9852
     4.0184   6.6329   6.8331   7.6548   8.6834  10.7088  10.7527  13.2637
    13.8447  14.3706  16.5274  16.9674  17.3531  17.8628  18.8446  19.0175
    19.1830  19.3568  20.2972  20.3212  20.7634  20.9653  21.7927  21.9926
    22.1620  22.3250  22.5598  23.0482  23.4081  23.7440  23.8442  24.2273

     occupation numbers 
     1.0000   1.0000   1.0000   1.0000   0.0000   0.0000   0.0000   0.0000
     0.0000   0.0000   0.0000   0.0000   0.0000   0.0000   0.0000   0.0000
     0.0000   0.0000   0.0000   0.0000   0.0000   0.0000   0.0000   0.0000
     0.0000   0.0000   0.0000   0.0000   0.0000   0.0000   0.0000   0.0000
     0.0000   0.0000   0.0000   0.0000   0.0000   0.0000   0.0000   0.0000

          k =-0.0278-0.0481 0.0000 ( 11913 PWs)   bands (ev):

   -16.9968  -5.7896  -4.3747  -4.2600  -0.4786   1.6876   2.2214   3.7754
     3.9429   6.5044   6.8255   8.1326   8.4193  10.4095  10.8142  13.7727
    14.1364  14.3156  16.3687  16.9919  17.5763  18.4351  19.3066  19.4140
    19.7449  20.9616  21.1138  21.3055  21.4695  21.6539  21.8889  22.3659
    22.5020  22.9079  23.1445  23.2705  23.3946  23.6832  23.8747  24.0324

     occupation numbers 
     1.0000   1.0000   1.0000   1.0000   0.0000   0.0000   0.0000   0.0000
     0.0000   0.0000   0.0000   0.0000   0.0000   0.0000   0.0000   0.0000
     0.0000   0.0000   0.0000   0.0000   0.0000   0.0000   0.0000   0.0000
     0.0000   0.0000   0.0000   0.0000   0.0000   0.0000   0.0000   0.0000
     0.0000   0.0000   0.0000   0.0000   0.0000   0.0000   0.0000   0.0000

     highest occupied, lowest unoccupied level (ev):    -3.5217   -0.5393

     Writing all to output data dir ./AlN.save/ :
     XML data file, pseudopotentials, collected wavefunctions

     init_run     :      0.51s CPU      0.56s WALL (       1 calls)
     electrons    :     61.00s CPU     62.01s WALL (       1 calls)

     Called by init_run:
     wfcinit      :      0.00s CPU      0.00s WALL (       1 calls)
     wfcinit:atom :      0.00s CPU      0.01s WALL (      81 calls)
     wfcinit:wfcr :      1.03s CPU      1.07s WALL (      81 calls)
     potinit      :      0.01s CPU      0.01s WALL (       1 calls)
     hinit0       :      0.48s CPU      0.48s WALL (       1 calls)

     Called by electrons:
     c_bands      :     60.99s CPU     61.72s WALL (       1 calls)
     v_of_rho     :      0.00s CPU      0.00s WALL (       1 calls)
     v_h          :      0.00s CPU      0.00s WALL (       1 calls)
     v_xc         :      0.00s CPU      0.00s WALL (       1 calls)

     Called by c_bands:
     init_us_2    :      0.01s CPU      0.01s WALL (      81 calls)
     cegterg      :     53.99s CPU     54.60s WALL (     282 calls)

     Called by sum_band:

     Called by *egterg:
     cdiaghg      :     15.55s CPU     15.66s WALL (    5053 calls)
     cegterg:over :      3.18s CPU      3.23s WALL (    4972 calls)
     cegterg:upda :      1.49s CPU      1.50s WALL (    4972 calls)
     cegterg:last :      2.63s CPU      2.64s WALL (    2662 calls)
     h_psi        :     30.60s CPU     31.08s WALL (    5335 calls)
     g_psi        :      0.33s CPU      0.34s WALL (    4972 calls)

     Called by h_psi:
     h_psi:calbec :      1.13s CPU      1.15s WALL (    5335 calls)
     vloc_psi     :     28.83s CPU     29.28s WALL (    5335 calls)
     add_vuspsi   :      0.49s CPU      0.50s WALL (    5335 calls)

     General routines
     calbec       :      1.12s CPU      1.14s WALL (    5335 calls)
     fft          :      0.47s CPU      0.47s WALL (       4 calls)
     fftw         :     26.44s CPU     26.85s WALL (  217452 calls)
     davcio       :      0.02s CPU      0.04s WALL (     162 calls)

     Parallel routines

     PWSCF        :   1m 2.65s CPU   1m 5.21s WALL


   This run was terminated on:  21:32:27  22Jan2026            

=------------------------------------------------------------------------------=
   JOB DONE.
=------------------------------------------------------------------------------=
